#------------------------------------------------------------------------------
#$Date: 2016-03-22 12:04:14 +0200 (Tue, 22 Mar 2016) $
#$Revision: 178932 $
#$URL: svn://www.crystallography.net/cod/cif/4/11/61/4116148.cif $
#------------------------------------------------------------------------------
#
# This file is available in the Crystallography Open Database (COD),
# http://www.crystallography.net/
#
# All data on this site have been placed in the public domain by the
# contributors.
#
data_4116148
loop_
_publ_author_name
'Venkat R. Thalladi'
'Markus N\"usse'
'Roland Boese'
_publ_section_title
;
 The Melting Point Alternation in \a,\w-Alkanedicarboxylic Acids
;
_journal_name_full               'Journal of the American Chemical Society'
_journal_page_first              9227
_journal_page_last               9236
_journal_paper_doi               10.1021/ja0011459
_journal_volume                  122
_journal_year                    2000
_chemical_compound_source        Fluka
_chemical_formula_moiety         'C2 H2 O4'
_chemical_formula_structural     'C2 H2 O4'
_chemical_formula_sum            'C2 H2 O4'
_chemical_formula_weight         90.04
_chemical_melting_point          462.5
_chemical_name_common            'Oxalic acid'
_chemical_name_systematic
; 
 Ethane-1,2-dioic acid  
;
_space_group_IT_number           61
_symmetry_cell_setting           orthorhombic
_symmetry_space_group_name_Hall  '-P 2ac 2ab'
_symmetry_space_group_name_H-M   'P b c a'
_atom_sites_solution_hydrogens   geom
_atom_sites_solution_primary     direct
_atom_sites_solution_secondary   difmap
_audit_creation_method           SHELXL
_cell_angle_alpha                90.00
_cell_angle_beta                 90.00
_cell_angle_gamma                90.00
_cell_formula_units_Z            8
_cell_length_a                   6.5594(5)
_cell_length_b                   6.0940(5)
_cell_length_c                   7.8524(6)
_cell_measurement_temperature    298(2)
_cell_volume                     313.88(4)
_computing_structure_refinement  'SHELXL-93 (Sheldrick, 1993)'
_computing_structure_solution    'SHELXS-86 (Sheldrick, 1990)'
_diffrn_ambient_temperature      298(2)
_diffrn_radiation_monochromator  graphite
_diffrn_radiation_source         'fine-focus sealed tube'
_diffrn_radiation_type           MoK\a
_diffrn_radiation_wavelength     0.71073
_diffrn_reflns_av_R_equivalents  0.0246
_diffrn_reflns_av_sigmaI/netI    0.0218
_diffrn_reflns_limit_h_max       8
_diffrn_reflns_limit_h_min       -8
_diffrn_reflns_limit_k_max       3
_diffrn_reflns_limit_k_min       -7
_diffrn_reflns_limit_l_max       10
_diffrn_reflns_limit_l_min       -9
_diffrn_reflns_number            1473
_diffrn_reflns_theta_max         28.25
_diffrn_reflns_theta_min         5.19
_exptl_absorpt_coefficient_mu    0.197
_exptl_crystal_density_diffrn    1.905
_exptl_crystal_F_000             184
_refine_diff_density_max         0.367
_refine_diff_density_min         -0.144
_refine_diff_density_rms         0.049
_refine_ls_extinction_method     none
_refine_ls_goodness_of_fit_all   1.111
_refine_ls_goodness_of_fit_obs   1.162
_refine_ls_matrix_type           full
_refine_ls_number_parameters     32
_refine_ls_number_reflns         380
_refine_ls_number_restraints     0
_refine_ls_restrained_S_all      1.111
_refine_ls_restrained_S_obs      1.162
_refine_ls_R_factor_all          0.0360
_refine_ls_R_factor_obs          0.0343
_refine_ls_shift/esd_max         0.000
_refine_ls_shift/esd_mean        0.000
_refine_ls_structure_factor_coef Fsqd
_refine_ls_weighting_details
'w=1/[\s^2^(Fo^2^)+(0.0539P)^2^+0.0726P] where P=(Fo^2^+2Fc^2^)/3'
_refine_ls_weighting_scheme      calc
_refine_ls_wR_factor_all         0.0932
_refine_ls_wR_factor_obs         0.0925
_reflns_number_observed          345
_reflns_number_total             380
_reflns_observed_criterion       >2sigma(I)
_cod_data_source_file            ja0011459_10.cif
_cod_data_source_block           disa22m
_cod_depositor_comments
;
The following automatic conversions were performed:

'_refine_ls_weighting_scheme' value 'calc
w=1/[\s^2^(Fo^2^)+(0.0539P)^2^+0.0726P] where P=(Fo^2^+2Fc^2^)/3' was
changed to 'calc'. New tag '_refine_ls_weighting_details' was
created. The value of the new tag was set to
'w=1/[\s^2^(Fo^2^)+(0.0539P)^2^+0.0726P] where P=(Fo^2^+2Fc^2^)/3'.

Automatic conversion script
Id: cif_fix_values 3143 2015-03-26 13:38:13Z robertas 
;
_cod_database_code               4116148
loop_
_symmetry_equiv_pos_as_xyz
'x, y, z'
'-x+1/2, -y, z+1/2'
'-x, y+1/2, -z+1/2'
'x+1/2, -y+1/2, -z'
'-x, -y, -z'
'x-1/2, y, -z-1/2'
'x, -y-1/2, z-1/2'
'-x-1/2, y-1/2, z'
loop_
_atom_site_aniso_label
_atom_site_aniso_U_11
_atom_site_aniso_U_22
_atom_site_aniso_U_33
_atom_site_aniso_U_23
_atom_site_aniso_U_13
_atom_site_aniso_U_12
O1 0.0347(5) 0.0255(5) 0.0277(5) 0.0017(3) -0.0010(3) -0.0074(3)
O2 0.0433(6) 0.0280(6) 0.0201(5) -0.0014(3) -0.0009(3) -0.0061(4)
C1 0.0251(5) 0.0200(6) 0.0210(6) -0.0007(4) -0.0013(4) 0.0019(4)
loop_
_atom_site_label
_atom_site_type_symbol
_atom_site_fract_x
_atom_site_fract_y
_atom_site_fract_z
_atom_site_U_iso_or_equiv
_atom_site_thermal_displace_type
_atom_site_occupancy
_atom_site_calc_flag
O1 O 0.65584(13) 0.23231(14) -0.00512(10) 0.0293(3) Uani 1 d
O2 O 0.5294(2) 0.04305(15) 0.21672(11) 0.0305(3) Uani 1 d
H1 H 0.5882(31) 0.1484(30) 0.2760(22) 0.046(5) Uiso 1 d
C1 C 0.5567(2) 0.0843(2) 0.05513(13) 0.0220(3) Uani 1 d
loop_
_atom_type_symbol
_atom_type_description
_atom_type_scat_dispersion_real
_atom_type_scat_dispersion_imag
_atom_type_scat_source
C C 0.0033 0.0016 'International Tables Vol C Tables 4.2.6.8 and 6.1.1.4'
H H 0.0000 0.0000 'International Tables Vol C Tables 4.2.6.8 and 6.1.1.4'
O O 0.0106 0.0060 'International Tables Vol C Tables 4.2.6.8 and 6.1.1.4'
loop_
_geom_angle_atom_site_label_1
_geom_angle_atom_site_label_2
_geom_angle_atom_site_label_3
_geom_angle
_geom_angle_site_symmetry_3
O1 C1 O2 126.72(10) .
O1 C1 C1 122.63(12) 5_655
O2 C1 C1 110.65(11) 5_655
loop_
_geom_bond_atom_site_label_1
_geom_bond_atom_site_label_2
_geom_bond_distance
_geom_bond_site_symmetry_2
O1 C1 1.2086(13) .
O2 C1 1.3059(14) .
C1 C1 1.536(2) 5_655
