#------------------------------------------------------------------------------
#$Date: 2016-03-26 18:13:32 +0200 (Sat, 26 Mar 2016) $
#$Revision: 180417 $
#$URL: svn://www.crystallography.net/cod/cif/7/20/86/7208660.cif $
#------------------------------------------------------------------------------
#
# This file is available in the Crystallography Open Database (COD),
# http://www.crystallography.net/
#
# All data on this site have been placed in the public domain by the
# contributors.
#
data_7208660
loop_
_publ_author_name
'Podsiad\/lo, Marcin'
'Patyk, Ewa'
'Katrusiak, Andrzej'
_publ_section_title
;
 Chiral aggregation hierarchy in high-pressure resolved 2-butanol and
 2,3-butanediol
;
_journal_issue                   20
_journal_name_full               CrystEngComm
_journal_page_first              6419
_journal_paper_doi               10.1039/c2ce25372k
_journal_volume                  14
_journal_year                    2012
_chemical_formula_moiety         'C4 H10 O2'
_chemical_formula_sum            'C4 H10 O2'
_chemical_formula_weight         90.12
_chemical_melting_point          298
_chemical_name_common            2,3-butanediol
_chemical_name_systematic
;
2,3-butanediol
;
_space_group_IT_number           19
_symmetry_cell_setting           orthorhombic
_symmetry_space_group_name_Hall  'P 2ac 2ab'
_symmetry_space_group_name_H-M   'P 21 21 21'
_atom_sites_solution_hydrogens   geom
_atom_sites_solution_primary     direct
_atom_sites_solution_secondary   difmap
_audit_creation_method           SHELXL-97
_cell_angle_alpha                90.00
_cell_angle_beta                 90.00
_cell_angle_gamma                90.00
_cell_formula_units_Z            4
_cell_length_a                   4.9973(10)
_cell_length_b                   9.4478(19)
_cell_length_c                   10.076(2)
_cell_measurement_reflns_used    2886
_cell_measurement_temperature    295(2)
_cell_measurement_theta_max      25.00
_cell_measurement_theta_min      4.31
_cell_volume                     475.72(16)
_computing_cell_refinement       'CrysAlisRED (Oxford Diffraction, 2004)'
_computing_data_collection       'CrysAlisCCD (Oxford Diffraction, 2004)'
_computing_data_reduction
'CrysAlisRED (Oxford Diffraction, 2004); REDSHABS (Katrusiak, A. 2003)'
_computing_molecular_graphics    'SHELXTL (Sheldrick, 1990)'
_computing_publication_material  'SHELXL--97 (Sheldrick, 1997)'
_computing_structure_refinement  'SHELXL--97 (Sheldrick, 1997)'
_computing_structure_solution    'SHELXS--97 (Sheldrick, 1997)'
_diffrn_ambient_environment      'diamond-anvil cell'
_diffrn_ambient_pressure         720000
_diffrn_ambient_temperature      295(2)
_diffrn_measured_fraction_theta_full 0.374
_diffrn_measured_fraction_theta_max 0.374
_diffrn_measurement_device_type  'KM-4 CCD'
_diffrn_measurement_method       '\f- and \w-scans'
_diffrn_radiation_monochromator  graphite
_diffrn_radiation_source         'fine-focus sealed tube'
_diffrn_radiation_type           MoK\a
_diffrn_radiation_wavelength     0.71073
_diffrn_reflns_av_R_equivalents  0.0321
_diffrn_reflns_av_sigmaI/netI    0.0162
_diffrn_reflns_limit_h_max       5
_diffrn_reflns_limit_h_min       -5
_diffrn_reflns_limit_k_max       10
_diffrn_reflns_limit_k_min       -10
_diffrn_reflns_limit_l_max       4
_diffrn_reflns_limit_l_min       -4
_diffrn_reflns_number            1832
_diffrn_reflns_theta_full        25.00
_diffrn_reflns_theta_max         25.00
_diffrn_reflns_theta_min         4.31
_diffrn_standards_decay_%        0
_diffrn_standards_interval_count 0
_diffrn_standards_number         0
_exptl_absorpt_coefficient_mu    0.099
_exptl_absorpt_correction_T_max  0.90
_exptl_absorpt_correction_T_min  0.55
_exptl_absorpt_correction_type   numerical
_exptl_absorpt_process_details
;
Correction for absorption of the diamond-anvil cell and the sample
were made using program REDSHABS (Katrusiak, A. (2003) REDSHABS. Adam
Mickiewicz University Pozna\'n; Katrusiak, A. (2004) Z. Kristallogr.
219, 461-467).
;
_exptl_crystal_colour            colourless
_exptl_crystal_density_diffrn    1.258
_exptl_crystal_density_method    'not measured'
_exptl_crystal_description       cylinder
_exptl_crystal_F_000             200
_exptl_crystal_size_max          0.41
_exptl_crystal_size_mid          0.41
_exptl_crystal_size_min          0.27
_refine_diff_density_max         0.100
_refine_diff_density_min         -0.085
_refine_diff_density_rms         0.024
_refine_ls_abs_structure_details 'Flack H D (1983), Acta Cryst. A39, 876-881'
_refine_ls_abs_structure_Flack   1(3)
_refine_ls_extinction_method     none
_refine_ls_goodness_of_fit_ref   1.090
_refine_ls_hydrogen_treatment    constr
_refine_ls_matrix_type           full
_refine_ls_number_parameters     55
_refine_ls_number_reflns         318
_refine_ls_number_restraints     0
_refine_ls_restrained_S_all      1.090
_refine_ls_R_factor_all          0.0375
_refine_ls_R_factor_gt           0.0369
_refine_ls_shift/su_max          0.000
_refine_ls_shift/su_mean         0.000
_refine_ls_structure_factor_coef Fsqd
_refine_ls_weighting_details
'calc w=1/[\s^2^(Fo^2^)+(0.0525P)^2^+0.1868P] where P=(Fo^2^+2Fc^2^)/3'
_refine_ls_weighting_scheme      calc
_refine_ls_wR_factor_gt          0.0930
_refine_ls_wR_factor_ref         0.0935
_reflns_number_gt                310
_reflns_number_total             318
_reflns_threshold_expression     >2sigma(I)
_cod_data_source_file            c2ce25372k.txt
_cod_data_source_block           23butdiol_0.72GPa
_cod_database_code               7208660
loop_
_symmetry_equiv_pos_as_xyz
'x, y, z'
'-x+1/2, -y, z+1/2'
'-x, y+1/2, -z+1/2'
'x+1/2, -y+1/2, -z'
loop_
_atom_site_label
_atom_site_type_symbol
_atom_site_fract_x
_atom_site_fract_y
_atom_site_fract_z
_atom_site_U_iso_or_equiv
_atom_site_adp_type
_atom_site_occupancy
_atom_site_symmetry_multiplicity
_atom_site_calc_flag
_atom_site_refinement_flags
O1 O 0.3076(4) -0.05279(18) 0.1991(5) 0.045(2) Uani 1 1 d .
H1 H 0.1626 -0.0933 0.1966 0.067 Uiso 1 1 calc R
O2 O 0.1914(4) 0.31592(17) 0.2940(5) 0.041(2) Uani 1 1 d .
H2 H 0.3432 0.3488 0.2960 0.049 Uiso 1 1 calc R
C1 C 0.0668(7) 0.1246(4) 0.0674(9) 0.042(4) Uani 1 1 d .
H11 H 0.0992 0.0607 -0.0050 0.063 Uiso 1 1 calc R
H12 H 0.0859 0.2203 0.0370 0.063 Uiso 1 1 calc R
H13 H -0.1113 0.1105 0.1005 0.063 Uiso 1 1 calc R
C2 C 0.2687(5) 0.0961(3) 0.1783(8) 0.033(4) Uani 1 1 d .
H21 H 0.4407 0.1350 0.1490 0.040 Uiso 1 1 calc R
C3 C 0.2033(6) 0.1652(3) 0.3145(8) 0.031(3) Uani 1 1 d .
H31 H 0.3491 0.1443 0.3765 0.037 Uiso 1 1 calc R
C4 C -0.0573(6) 0.1204(3) 0.3765(8) 0.042(5) Uani 1 1 d .
H41 H -0.1008 0.1834 0.4481 0.063 Uiso 1 1 calc R
H42 H -0.0406 0.0256 0.4100 0.063 Uiso 1 1 calc R
H43 H -0.1966 0.1235 0.3110 0.063 Uiso 1 1 calc R
loop_
_atom_site_aniso_label
_atom_site_aniso_U_11
_atom_site_aniso_U_22
_atom_site_aniso_U_33
_atom_site_aniso_U_23
_atom_site_aniso_U_13
_atom_site_aniso_U_12
O1 0.0319(10) 0.0241(12) 0.078(7) -0.0003(15) -0.003(2) 0.0041(7)
O2 0.0302(10) 0.0252(12) 0.067(8) -0.0044(13) -0.001(2) -0.0005(7)
C1 0.0381(19) 0.043(2) 0.044(13) -0.001(3) -0.008(3) 0.0001(14)
C2 0.0243(14) 0.0266(19) 0.049(13) 0.001(2) 0.018(3) 0.0006(10)
C3 0.0257(12) 0.0258(18) 0.040(12) 0.002(2) -0.005(3) 0.0027(11)
C4 0.0344(15) 0.040(2) 0.051(15) -0.003(2) 0.005(3) -0.0001(13)
loop_
_atom_type_symbol
_atom_type_description
_atom_type_scat_dispersion_real
_atom_type_scat_dispersion_imag
_atom_type_scat_source
C C 0.0033 0.0016 'International Tables Vol C Tables 4.2.6.8 and 6.1.1.4'
H H 0.0000 0.0000 'International Tables Vol C Tables 4.2.6.8 and 6.1.1.4'
O O 0.0106 0.0060 'International Tables Vol C Tables 4.2.6.8 and 6.1.1.4'
loop_
_geom_angle_atom_site_label_1
_geom_angle_atom_site_label_2
_geom_angle_atom_site_label_3
_geom_angle
O1 C2 C1 111.6(4)
O1 C2 C3 108.1(6)
C1 C2 C3 115.6(4)
O2 C3 C4 107.6(3)
O2 C3 C2 107.3(6)
C4 C3 C2 115.5(4)
loop_
_geom_bond_atom_site_label_1
_geom_bond_atom_site_label_2
_geom_bond_distance
O1 C2 1.435(4)
O2 C3 1.440(3)
C1 C2 1.530(11)
C2 C3 1.555(11)
C3 C4 1.505(6)
loop_
_refln_index_h
_refln_index_k
_refln_index_l
_refln_F_squared_calc
_refln_F_squared_meas
_refln_F_squared_sigma
_refln_observed_status
2 0 0 1184.20 1090.14 9.77 o
4 0 0 58.49 67.89 0.75 o
2 1 0 240.44 232.54 2.05 o
3 1 0 135.33 157.52 1.06 o
4 1 0 154.22 158.72 1.60 o
5 1 0 3.63 3.08 0.27 o
0 2 0 3.02 5.57 0.12 o
2 2 0 0.11 0.08 0.02 o
3 2 0 12.50 10.69 0.17 o
4 2 0 1.19 0.22 0.09 o
5 2 0 2.84 1.51 0.28 o
1 3 0 209.42 183.49 1.36 o
2 3 0 0.10 0.11 0.03 o
3 3 0 4.81 8.90 0.13 o
4 3 0 2.92 3.49 0.21 o
5 3 0 9.56 10.63 0.34 o
1 4 0 111.82 114.08 0.68 o
2 4 0 0.86 0.54 0.06 o
3 4 0 112.31 110.94 1.78 o
4 4 0 14.08 12.75 0.34 o
5 4 0 14.15 12.43 0.42 o
1 5 0 345.23 394.51 1.54 o
2 5 0 6.99 4.47 0.12 o
3 5 0 56.03 58.66 0.64 o
4 5 0 0.43 0.17 0.13 o
5 5 0 1.60 1.17 0.26 o
1 6 0 65.30 64.06 0.41 o
2 6 0 8.32 10.85 0.29 o
3 6 0 28.57 29.89 0.53 o
4 6 0 3.93 3.96 0.31 o
5 6 0 9.24 10.35 0.84 o
2 7 0 168.86 157.88 1.83 o
3 7 0 6.17 6.69 0.62 o
1 0 1 590.30 596.93 1.32 o
2 0 1 73.34 66.44 0.52 o
3 0 1 0.02 0.19 0.04 o
4 0 1 237.99 224.41 2.41 o
5 0 1 0.35 0.23 0.15 o
-5 1 1 10.02 8.60 0.36 o
-4 1 1 64.08 59.70 0.66 o
-3 1 1 139.21 146.31 1.08 o
-2 1 1 408.03 440.35 1.02 o
2 1 1 408.19 446.88 1.90 o
3 1 1 139.31 143.62 1.40 o
4 1 1 64.08 58.93 1.08 o
5 1 1 10.04 8.07 0.35 o
-5 2 1 116.80 128.28 2.00 o
-4 2 1 22.29 24.00 0.28 o
-3 2 1 419.11 422.33 4.04 o
-2 2 1 108.34 101.96 1.19 o
-1 2 1 304.46 301.79 2.86 o
0 2 1 466.97 451.37 4.18 o
1 2 1 304.07 303.01 3.42 o
2 2 1 108.35 101.04 1.15 o
3 2 1 419.69 407.78 4.14 o
4 2 1 22.30 23.61 0.49 o
5 2 1 116.52 127.40 4.28 o
-5 3 1 8.52 8.18 0.44 o
-4 3 1 4.18 3.73 0.18 o
-3 3 1 5.35 6.38 0.19 o
-2 3 1 3.98 4.19 0.08 o
-1 3 1 185.36 169.01 1.60 o
0 3 1 15.37 14.08 0.16 o
1 3 1 185.44 168.48 1.84 o
2 3 1 4.00 4.21 0.08 o
3 3 1 5.41 5.82 0.13 o
4 3 1 4.20 3.36 0.20 o
5 3 1 8.56 7.50 0.39 o
-5 4 1 4.29 3.87 0.38 o
-4 4 1 44.31 42.91 0.44 o
-3 4 1 2.45 2.15 0.14 o
-2 4 1 53.95 58.50 0.84 o
-1 4 1 149.52 142.62 1.48 o
0 4 1 2.21 3.87 0.09 o
1 4 1 149.26 144.73 2.13 o
2 4 1 53.94 60.47 0.80 o
3 4 1 2.42 2.17 0.13 o
4 4 1 44.30 41.76 0.68 o
5 4 1 4.27 3.12 0.33 o
-5 5 1 6.50 5.05 0.50 o
-4 5 1 4.31 4.42 0.35 o
-3 5 1 59.57 52.50 0.46 o
-2 5 1 6.70 6.18 0.15 o
-1 5 1 657.69 700.26 8.10 o
0 5 1 1.17 2.91 0.11 o
1 5 1 657.89 698.68 10.48 o
2 5 1 6.64 6.23 0.24 o
3 5 1 59.61 52.25 1.01 o
4 5 1 4.30 4.38 0.40 o
5 5 1 6.50 4.10 0.70 o
-5 6 1 80.28 91.89 4.35 o
-4 6 1 5.60 5.19 0.43 o
-3 6 1 150.54 160.06 2.36 o
-2 6 1 79.55 74.52 0.43 o
-1 6 1 58.48 64.18 0.90 o
0 6 1 887.67 904.24 11.51 o
1 6 1 58.41 65.68 1.25 o
2 6 1 79.60 75.32 1.26 o
3 6 1 150.69 155.76 2.80 o
4 6 1 5.59 4.54 0.73 o
5 6 1 80.15 90.36 1.15 o
-4 7 1 44.41 42.77 0.83 o
-3 7 1 0.98 0.35 0.17 o
-2 7 1 66.14 62.85 0.65 o
-1 7 1 8.08 5.27 0.23 o
0 7 1 107.36 112.11 1.20 o
1 7 1 8.07 5.28 0.23 o
2 7 1 66.09 60.11 0.88 o
3 7 1 0.99 0.54 0.18 o
4 7 1 44.38 42.40 1.36 o
-4 8 1 2.73 2.71 0.92 o
-3 8 1 14.04 16.37 0.81 o
-2 8 1 48.53 47.82 2.28 o
-1 8 1 30.89 27.64 0.61 o
0 8 1 30.45 25.43 0.42 o
1 8 1 30.91 29.64 1.55 o
2 8 1 48.47 50.47 0.90 o
3 8 1 14.05 15.99 0.74 o
4 8 1 2.76 1.85 0.75 o
3 0 2 86.18 85.43 1.40 o
4 0 2 41.89 40.46 0.71 o
5 0 2 68.61 68.50 0.84 o
-5 1 2 23.69 22.25 0.50 o
-4 1 2 130.41 137.01 2.37 o
-3 1 2 142.48 144.93 2.57 o
-2 1 2 311.20 320.63 3.49 o
2 1 2 310.83 309.39 8.68 o
3 1 2 142.39 147.49 3.30 o
4 1 2 130.36 135.03 1.74 o
5 1 2 23.67 22.19 0.56 o
-5 2 2 1.68 1.23 0.36 o
-4 2 2 41.37 41.62 0.52 o
-3 2 2 57.12 60.11 0.77 o
-2 2 2 202.58 222.36 2.93 o
-1 2 2 851.80 840.12 14.41 o
1 2 2 851.24 807.63 22.84 o
2 2 2 202.56 215.91 6.14 o
3 2 2 57.19 57.24 1.25 o
4 2 2 41.38 38.88 0.40 o
5 2 2 1.67 1.10 0.26 o
-5 3 2 2.96 3.16 0.79 o
-4 3 2 6.28 4.98 0.80 o
-3 3 2 35.21 36.06 0.38 o
-2 3 2 12.84 14.17 0.18 o
-1 3 2 238.17 244.79 4.60 o
0 3 2 11.65 12.68 0.14 o
1 3 2 238.39 241.34 5.94 o
2 3 2 12.83 14.17 0.34 o
3 3 2 35.08 34.57 0.55 o
4 3 2 6.27 4.32 0.44 o
5 3 2 2.95 2.40 1.00 o
-5 4 2 55.27 58.74 1.16 o
-4 4 2 8.92 8.96 0.52 o
-3 4 2 114.62 110.76 1.60 o
-2 4 2 75.94 71.73 1.04 o
-1 4 2 61.54 62.92 1.11 o
0 4 2 19.83 16.80 0.31 o
1 4 2 61.70 63.67 1.24 o
2 4 2 75.90 70.71 0.77 o
3 4 2 114.30 108.71 1.12 o
4 4 2 8.91 8.73 0.59 o
5 4 2 55.57 52.39 1.06 o
-5 5 2 24.89 25.65 1.05 o
-4 5 2 12.80 12.17 0.50 o
-3 5 2 100.22 106.95 1.14 o
-2 5 2 26.53 29.52 0.34 o
-1 5 2 159.99 175.00 1.52 o
0 5 2 13.33 11.81 0.15 o
1 5 2 160.02 171.34 2.35 o
2 5 2 26.60 28.84 0.44 o
3 5 2 100.13 102.65 1.10 o
4 5 2 12.83 10.76 0.52 o
5 5 2 24.88 23.06 2.16 o
-4 6 2 91.00 105.18 1.65 o
-3 6 2 49.08 50.39 0.44 o
-2 6 2 5.59 5.12 0.20 o
-1 6 2 290.52 277.09 3.87 o
0 6 2 31.12 35.54 0.34 o
1 6 2 290.55 277.42 4.08 o
2 6 2 5.63 5.20 0.19 o
3 6 2 49.13 48.47 1.04 o
4 6 2 90.98 97.61 3.51 o
-4 7 2 62.50 66.72 2.04 o
-3 7 2 4.08 2.94 0.30 o
-2 7 2 160.67 167.34 1.56 o
-1 7 2 12.50 13.51 0.26 o
0 7 2 102.89 111.15 1.49 o
1 7 2 12.50 13.26 0.27 o
2 7 2 160.73 158.66 2.48 o
3 7 2 4.07 2.88 0.36 o
4 7 2 62.57 62.64 2.36 o
-3 8 2 25.50 27.63 0.76 o
-2 8 2 40.16 42.80 1.35 o
-1 8 2 22.35 25.81 0.55 o
0 8 2 206.09 202.38 2.21 o
1 8 2 22.34 25.65 0.59 o
2 8 2 40.11 40.19 0.54 o
3 8 2 25.52 26.87 0.90 o
-3 9 2 7.56 7.45 0.72 o
-2 9 2 6.82 5.93 0.51 o
-1 9 2 11.84 9.63 0.43 o
0 9 2 0.60 0.47 0.18 o
1 9 2 11.82 8.91 0.34 o
2 9 2 6.88 6.89 0.52 o
3 9 2 7.58 7.78 0.74 o
-2 10 2 5.58 6.55 1.03 o
-1 10 2 0.87 0.68 0.74 o
0 10 2 1.50 0.96 0.71 o
1 10 2 0.89 0.25 0.43 o
2 10 2 5.60 5.97 0.97 o
-4 1 3 27.17 22.66 0.98 o
-5 2 3 37.78 43.10 1.45 o
-4 2 3 0.99 1.51 0.40 o
-3 2 3 67.36 77.07 2.00 o
3 2 3 67.31 73.74 3.37 o
4 2 3 0.99 1.83 0.53 o
5 2 3 37.67 39.04 1.51 o
-5 3 3 2.14 2.59 0.74 o
-4 3 3 16.22 15.28 0.69 o
-3 3 3 34.37 34.66 0.60 o
-2 3 3 37.47 37.43 1.98 o
2 3 3 37.57 39.13 0.54 o
3 3 3 34.36 34.57 0.74 o
4 3 3 16.27 15.39 0.67 o
5 3 3 2.16 2.72 0.52 o
-5 4 3 19.07 21.70 2.20 o
-4 4 3 12.46 11.07 0.68 o
-3 4 3 22.41 25.96 0.97 o
-2 4 3 0.82 0.21 0.10 o
-1 4 3 170.52 164.87 0.68 o
0 4 3 0.34 0.76 0.21 o
1 4 3 171.14 156.00 1.05 o
2 4 3 0.82 0.29 0.14 o
3 4 3 22.29 25.15 1.11 o
4 4 3 12.45 9.95 0.63 o
5 4 3 19.08 21.13 0.90 o
-5 5 3 4.66 5.30 0.93 o
-4 5 3 3.56 3.37 0.57 o
-3 5 3 34.58 35.50 0.82 o
-2 5 3 4.41 3.70 0.19 o
-1 5 3 179.35 176.05 1.93 o
0 5 3 32.01 33.28 0.31 o
1 5 3 179.20 173.36 2.10 o
2 5 3 4.37 3.61 0.20 o
3 5 3 34.65 34.76 0.54 o
4 5 3 3.54 2.99 0.47 o
5 5 3 4.65 4.11 0.58 o
-4 6 3 7.25 4.81 1.38 o
-3 6 3 32.49 26.61 0.54 o
-2 6 3 136.40 136.18 1.01 o
-1 6 3 55.27 54.17 0.88 o
0 6 3 0.21 0.40 0.11 o
1 6 3 55.23 53.60 1.18 o
2 6 3 136.40 129.84 1.13 o
3 6 3 32.49 26.23 0.67 o
4 6 3 7.25 4.64 0.56 o
-4 7 3 27.14 27.85 1.41 o
-3 7 3 1.30 0.73 0.25 o
-2 7 3 231.26 253.54 3.36 o
-1 7 3 13.01 13.76 0.38 o
0 7 3 254.75 263.63 3.97 o
1 7 3 12.98 13.60 0.30 o
2 7 3 231.19 248.59 3.90 o
3 7 3 1.30 1.14 0.29 o
4 7 3 27.09 27.07 1.11 o
-3 8 3 26.76 25.58 0.66 o
-2 8 3 49.81 58.66 0.76 o
-1 8 3 123.40 121.99 1.04 o
0 8 3 2.78 1.51 0.23 o
1 8 3 123.36 121.61 1.89 o
2 8 3 49.79 53.99 1.75 o
3 8 3 26.78 25.60 0.57 o
-3 9 3 13.17 13.42 0.66 o
-2 9 3 2.83 2.61 0.33 o
-1 9 3 14.95 14.24 0.39 o
0 9 3 4.89 3.12 0.31 o
1 9 3 14.98 14.11 0.38 o
2 9 3 2.81 2.87 0.33 o
3 9 3 13.15 12.44 0.68 o
-2 10 3 15.68 16.93 0.68 o
-1 10 3 0.13 0.30 0.18 o
0 10 3 4.11 2.78 0.30 o
1 10 3 0.13 0.45 0.20 o
2 10 3 15.67 15.82 0.86 o
-3 5 4 91.12 90.92 1.60 o
3 5 4 91.28 84.48 1.44 o
-4 6 4 16.98 13.70 1.16 o
-3 6 4 78.67 76.52 1.12 o
-2 6 4 105.35 107.72 2.21 o
-1 6 4 382.16 407.72 3.19 o
1 6 4 382.00 395.05 1.34 o
2 6 4 105.35 99.09 2.48 o
3 6 4 78.70 76.08 2.05 o
4 6 4 17.02 17.25 1.15 o
-4 7 4 19.24 18.43 1.40 o
-3 7 4 4.66 4.73 0.72 o
-2 7 4 40.48 40.54 1.09 o
-1 7 4 4.80 4.30 0.40 o
0 7 4 186.84 194.33 2.20 o
1 7 4 4.81 4.29 0.35 o
2 7 4 40.56 38.07 0.71 o
3 7 4 4.66 5.13 0.46 o
4 7 4 19.26 17.65 1.44 o
-3 8 4 11.89 9.24 0.65 o
-2 8 4 1.01 0.73 0.28 o
-1 8 4 2.92 2.23 0.37 o
0 8 4 66.30 77.04 1.70 o
1 8 4 2.92 2.61 0.34 o
2 8 4 1.03 0.90 0.31 o
3 8 4 11.89 11.02 0.83 o
-2 9 4 2.37 2.35 0.47 o
-1 9 4 0.32 0.20 0.15 o
0 9 4 7.17 7.13 0.37 o
1 9 4 0.33 0.36 0.21 o
2 9 4 2.37 2.42 0.40 o
-1 10 4 2.62 2.89 0.40 o
0 10 4 2.65 2.81 0.43 o
1 10 4 2.68 2.97 0.43 o
