#------------------------------------------------------------------------------
#$Date: 2016-03-26 18:13:32 +0200 (Sat, 26 Mar 2016) $
#$Revision: 180417 $
#$URL: svn://www.crystallography.net/cod/cif/7/20/86/7208663.cif $
#------------------------------------------------------------------------------
#
# This file is available in the Crystallography Open Database (COD),
# http://www.crystallography.net/
#
# All data on this site have been placed in the public domain by the
# contributors.
#
data_7208663
loop_
_publ_author_name
'Podsiad\/lo, Marcin'
'Patyk, Ewa'
'Katrusiak, Andrzej'
_publ_section_title
;
 Chiral aggregation hierarchy in high-pressure resolved 2-butanol and
 2,3-butanediol
;
_journal_issue                   20
_journal_name_full               CrystEngComm
_journal_page_first              6419
_journal_paper_doi               10.1039/c2ce25372k
_journal_volume                  14
_journal_year                    2012
_chemical_formula_moiety         'C4 H10 O'
_chemical_formula_sum            'C4 H10 O'
_chemical_formula_weight         74.12
_chemical_melting_point          158
_chemical_name_common            2-butanol
_chemical_name_systematic
;
2-butanol
;
_space_group_IT_number           19
_symmetry_cell_setting           orthorhombic
_symmetry_space_group_name_Hall  'P 2ac 2ab'
_symmetry_space_group_name_H-M   'P 21 21 21'
_atom_sites_solution_hydrogens   geom
_atom_sites_solution_primary     direct
_atom_sites_solution_secondary   difmap
_audit_creation_method           SHELXL-97
_cell_angle_alpha                90.00
_cell_angle_beta                 90.00
_cell_angle_gamma                90.00
_cell_formula_units_Z            4
_cell_length_a                   5.0122(10)
_cell_length_b                   5.0885(10)
_cell_length_c                   16.044(3)
_cell_measurement_reflns_used    2975
_cell_measurement_temperature    295(2)
_cell_measurement_theta_max      24.92
_cell_measurement_theta_min      4.20
_cell_volume                     409.20(14)
_computing_cell_refinement       'CrysAlisRED (Oxford Diffraction, 2004)'
_computing_data_collection       'CrysAlisCCD (Oxford Diffraction, 2004)'
_computing_data_reduction
'CrysAlisRED (Oxford Diffraction, 2004); REDSHABS (Katrusiak, A. 2003)'
_computing_molecular_graphics    'SHELXTL (Sheldrick, 1990)'
_computing_publication_material  'SHELXL--97 (Sheldrick, 1997)'
_computing_structure_refinement  'SHELXL--97 (Sheldrick, 1997)'
_computing_structure_solution    'SHELXS--97 (Sheldrick, 1997)'
_diffrn_ambient_environment      'diamond-anvil cell'
_diffrn_ambient_pressure         2330000
_diffrn_ambient_temperature      295(2)
_diffrn_measured_fraction_theta_full 0.551
_diffrn_measured_fraction_theta_max 0.551
_diffrn_measurement_device_type  'KM-4 CCD'
_diffrn_measurement_method       '\f- and \w-scans'
_diffrn_radiation_monochromator  graphite
_diffrn_radiation_source         'fine-focus sealed tube'
_diffrn_radiation_type           MoK\a
_diffrn_radiation_wavelength     0.71073
_diffrn_reflns_av_R_equivalents  0.1644
_diffrn_reflns_av_sigmaI/netI    0.0779
_diffrn_reflns_limit_h_max       4
_diffrn_reflns_limit_h_min       -4
_diffrn_reflns_limit_k_max       6
_diffrn_reflns_limit_k_min       -6
_diffrn_reflns_limit_l_max       15
_diffrn_reflns_limit_l_min       -15
_diffrn_reflns_number            2975
_diffrn_reflns_theta_full        24.92
_diffrn_reflns_theta_max         24.92
_diffrn_reflns_theta_min         4.20
_diffrn_standards_decay_%        0
_diffrn_standards_interval_count 0
_diffrn_standards_number         0
_exptl_absorpt_coefficient_mu    0.083
_exptl_absorpt_correction_T_max  0.88
_exptl_absorpt_correction_T_min  0.41
_exptl_absorpt_correction_type   numerical
_exptl_absorpt_process_details
;
Correction for absorption of the diamond-anvil cell and the sample
were made using program REDSHABS (Katrusiak, A. (2003) REDSHABS. Adam
Mickiewicz University Pozna\'n; Katrusiak, A. (2004) Z. Kristallogr.
219, 461-467).
;
_exptl_crystal_colour            colourless
_exptl_crystal_density_diffrn    1.203
_exptl_crystal_density_method    'not measured'
_exptl_crystal_description       cylinder
_exptl_crystal_F_000             168
_exptl_crystal_size_max          0.46
_exptl_crystal_size_mid          0.46
_exptl_crystal_size_min          0.21
_refine_diff_density_max         0.325
_refine_diff_density_min         -0.385
_refine_diff_density_rms         0.087
_refine_ls_abs_structure_details 'Flack H D (1983), Acta Cryst. A39, 876-881'
_refine_ls_abs_structure_Flack   -5(9)
_refine_ls_extinction_method     none
_refine_ls_goodness_of_fit_ref   1.101
_refine_ls_hydrogen_treatment    constr
_refine_ls_matrix_type           full
_refine_ls_number_parameters     46
_refine_ls_number_reflns         408
_refine_ls_number_restraints     30
_refine_ls_restrained_S_all      1.146
_refine_ls_R_factor_all          0.1301
_refine_ls_R_factor_gt           0.1118
_refine_ls_shift/su_max          0.000
_refine_ls_shift/su_mean         0.000
_refine_ls_structure_factor_coef Fsqd
_refine_ls_weighting_details
'calc w=1/[\s^2^(Fo^2^)+(0.1937P)^2^+0.1060P] where P=(Fo^2^+2Fc^2^)/3'
_refine_ls_weighting_scheme      calc
_refine_ls_wR_factor_gt          0.2797
_refine_ls_wR_factor_ref         0.3005
_reflns_number_gt                304
_reflns_number_total             408
_reflns_threshold_expression     >2sigma(I)
_cod_data_source_file            c2ce25372k.txt
_cod_data_source_block           2but_2.33GPa
_cod_database_code               7208663
loop_
_symmetry_equiv_pos_as_xyz
'x, y, z'
'-x+1/2, -y, z+1/2'
'-x, y+1/2, -z+1/2'
'x+1/2, -y+1/2, -z'
loop_
_atom_site_label
_atom_site_type_symbol
_atom_site_fract_x
_atom_site_fract_y
_atom_site_fract_z
_atom_site_U_iso_or_equiv
_atom_site_adp_type
_atom_site_occupancy
_atom_site_symmetry_multiplicity
_atom_site_calc_flag
_atom_site_refinement_flags
O1 O 0.0644(16) 0.3214(10) 0.7751(4) 0.068(2) Uani 1 1 d U
H1 H 0.0102 0.4629 0.7574 0.102 Uiso 1 1 calc R
C1 C -0.112(2) 0.6155(12) 0.9256(6) 0.060(3) Uani 1 1 d U
H11 H -0.2020 0.6166 0.9784 0.089 Uiso 1 1 calc R
H12 H -0.2400 0.5941 0.8816 0.089 Uiso 1 1 calc R
H13 H -0.0186 0.7786 0.9182 0.089 Uiso 1 1 calc R
C2 C 0.088(2) 0.3870(12) 0.9233(6) 0.057(3) Uani 1 1 d U
H21 H 0.2155 0.4093 0.9683 0.068 Uiso 1 1 calc R
H22 H -0.0068 0.2239 0.9330 0.068 Uiso 1 1 calc R
C3 C 0.2394(19) 0.3651(12) 0.8422(5) 0.046(2) Uani 1 1 d U
H31 H 0.3432 0.5254 0.8325 0.055 Uiso 1 1 calc R
C4 C 0.4241(17) 0.1284(12) 0.8453(5) 0.046(2) Uani 1 1 d U
H41 H 0.5216 0.1161 0.7940 0.069 Uiso 1 1 calc R
H42 H 0.3205 -0.0284 0.8532 0.069 Uiso 1 1 calc R
H43 H 0.5468 0.1480 0.8909 0.069 Uiso 1 1 calc R
loop_
_atom_site_aniso_label
_atom_site_aniso_U_11
_atom_site_aniso_U_22
_atom_site_aniso_U_33
_atom_site_aniso_U_23
_atom_site_aniso_U_13
_atom_site_aniso_U_12
O1 0.079(6) 0.036(3) 0.090(7) 0.007(3) -0.025(3) -0.004(3)
C1 0.073(6) 0.029(3) 0.077(5) 0.003(3) 0.001(3) 0.011(3)
C2 0.090(8) 0.025(3) 0.055(8) -0.003(4) -0.005(4) 0.007(4)
C3 0.054(7) 0.025(3) 0.060(7) -0.003(3) -0.016(4) 0.007(4)
C4 0.045(7) 0.032(3) 0.062(6) 0.004(3) 0.012(3) 0.003(4)
loop_
_atom_type_symbol
_atom_type_description
_atom_type_scat_dispersion_real
_atom_type_scat_dispersion_imag
_atom_type_scat_source
C C 0.0033 0.0016 'International Tables Vol C Tables 4.2.6.8 and 6.1.1.4'
H H 0.0000 0.0000 'International Tables Vol C Tables 4.2.6.8 and 6.1.1.4'
O O 0.0106 0.0060 'International Tables Vol C Tables 4.2.6.8 and 6.1.1.4'
loop_
_geom_angle_atom_site_label_1
_geom_angle_atom_site_label_2
_geom_angle_atom_site_label_3
_geom_angle
C3 O1 H1 109.5
C2 C1 H11 109.5
C2 C1 H12 109.5
H11 C1 H12 109.5
C2 C1 H13 109.5
H11 C1 H13 109.5
H12 C1 H13 109.5
C3 C2 C1 113.8(7)
C3 C2 H21 108.8
C1 C2 H21 108.8
C3 C2 H22 108.8
C1 C2 H22 108.8
H21 C2 H22 107.7
O1 C3 C2 111.0(10)
O1 C3 C4 106.3(6)
C2 C3 C4 109.6(6)
O1 C3 H31 110.0
C2 C3 H31 110.0
C4 C3 H31 110.0
C3 C4 H41 109.5
C3 C4 H42 109.5
H41 C4 H42 109.5
C3 C4 H43 109.5
H41 C4 H43 109.5
H42 C4 H43 109.5
loop_
_geom_bond_atom_site_label_1
_geom_bond_atom_site_label_2
_geom_bond_distance
O1 C3 1.406(10)
O1 H1 0.8200
C1 C2 1.537(11)
C1 H11 0.9600
C1 H12 0.9600
C1 H13 0.9600
C2 C3 1.509(14)
C2 H21 0.9700
C2 H22 0.9700
C3 C4 1.520(9)
C3 H31 0.9800
C4 H41 0.9600
C4 H42 0.9600
C4 H43 0.9600
loop_
_geom_torsion_atom_site_label_1
_geom_torsion_atom_site_label_2
_geom_torsion_atom_site_label_3
_geom_torsion_atom_site_label_4
_geom_torsion
C1 C2 C3 O1 -61.0(9)
C1 C2 C3 C4 -178.1(7)
loop_
_refln_index_h
_refln_index_k
_refln_index_l
_refln_F_squared_calc
_refln_F_squared_meas
_refln_F_squared_sigma
_refln_observed_status
1 1 0 53.47 79.19 2.87 o
0 2 0 69.91 71.31 1.89 o
1 2 0 796.09 734.18 9.23 o
1 3 0 58.48 53.50 1.12 o
2 3 0 26.49 21.84 4.55 o
0 4 0 566.85 825.88 16.59 o
1 4 0 42.70 46.59 4.30 o
2 4 0 2.13 0.90 1.01 o
1 5 0 0.94 4.31 1.58 o
2 5 0 5.64 3.13 2.67 o
0 6 0 3.27 3.16 2.19 o
1 0 1 563.87 578.28 53.75 o
-1 1 1 1593.26 1922.00 119.21 o
0 1 1 413.50 496.39 13.11 o
1 1 1 1593.74 1796.19 87.58 o
-2 2 1 17.03 11.66 2.99 o
-1 2 1 488.69 555.33 12.56 o
0 2 1 169.13 155.36 1.19 o
1 2 1 488.17 533.75 12.06 o
2 2 1 17.06 11.21 3.56 o
-2 3 1 82.85 93.46 11.53 o
-1 3 1 187.64 270.13 4.66 o
0 3 1 25.81 14.22 2.04 o
1 3 1 187.73 248.97 7.84 o
2 3 1 82.89 98.94 7.29 o
-2 4 1 6.71 8.42 1.40 o
-1 4 1 2.99 5.93 1.09 o
0 4 1 65.63 93.41 1.90 o
1 4 1 2.97 4.72 1.04 o
2 4 1 6.75 9.23 2.43 o
-2 5 1 0.76 3.66 2.75 o
-1 5 1 63.29 74.62 2.85 o
0 5 1 17.66 17.47 2.46 o
1 5 1 63.34 73.67 2.72 o
2 5 1 0.75 4.56 3.76 o
0 6 1 0.73 2.42 2.08 o
1 0 2 688.61 603.64 17.73 o
-2 1 2 65.75 72.36 4.24 o
-1 1 2 76.59 55.90 5.73 o
0 1 2 688.25 1056.66 37.80 o
1 1 2 76.75 56.58 4.73 o
2 1 2 65.53 82.21 14.52 o
-2 2 2 392.25 496.57 53.32 o
-1 2 2 276.17 360.91 27.51 o
0 2 2 100.45 172.14 5.09 o
1 2 2 276.06 299.60 27.02 o
2 2 2 391.89 507.63 29.81 o
-2 3 2 75.84 84.19 4.25 o
-1 3 2 51.00 72.62 2.84 o
0 3 2 108.39 131.86 3.85 o
1 3 2 50.96 69.17 1.92 o
2 3 2 75.73 81.15 7.55 o
-2 4 2 1.16 3.07 1.32 o
-1 4 2 74.42 73.57 3.54 o
0 4 2 0.70 0.41 0.92 o
1 4 2 74.26 79.64 4.58 o
2 4 2 1.17 2.56 1.17 o
-2 5 2 4.11 6.04 2.41 o
-1 5 2 2.42 5.17 1.44 o
0 5 2 21.36 19.06 2.24 o
1 5 2 2.40 4.43 1.25 o
2 5 2 4.09 3.00 1.81 o
0 6 2 18.01 17.32 2.58 o
1 0 3 39.37 51.06 0.41 o
2 0 3 17.24 16.56 1.68 o
-2 1 3 16.19 16.55 2.02 o
-1 1 3 210.28 178.95 1.93 o
0 1 3 1250.74 1301.25 5.46 o
1 1 3 210.57 179.69 1.87 o
2 1 3 16.20 13.52 1.50 o
-2 2 3 46.84 45.47 3.91 o
-1 2 3 71.88 102.20 1.97 o
0 2 3 203.83 236.78 1.48 o
1 2 3 71.80 102.62 2.38 o
2 2 3 46.89 48.31 4.57 o
-3 3 3 35.36 31.61 3.62 o
-2 3 3 21.53 25.25 1.92 o
-1 3 3 175.98 256.38 13.54 o
0 3 3 65.87 76.24 2.97 o
1 3 3 175.86 257.53 9.08 o
2 3 3 21.53 26.22 2.43 o
-3 4 3 6.12 6.87 4.48 o
-2 4 3 17.86 19.42 1.86 o
-1 4 3 35.48 48.74 1.53 o
0 4 3 45.72 42.89 3.02 o
1 4 3 35.52 44.16 1.56 o
2 4 3 17.90 19.26 1.76 o
-2 5 3 4.63 2.49 1.86 o
-1 5 3 2.17 3.25 1.23 o
0 5 3 64.50 79.15 3.72 o
1 5 3 2.16 2.24 1.22 o
2 5 3 4.61 4.63 1.86 o
1 0 4 611.28 522.35 1.80 o
2 0 4 67.27 60.78 1.13 o
3 0 4 17.46 12.44 3.71 o
-3 1 4 46.15 58.82 4.85 o
-2 1 4 83.42 112.82 2.51 o
-1 1 4 14.01 7.09 0.30 o
1 1 4 14.05 7.24 0.45 o
2 1 4 83.25 108.29 1.47 o
3 1 4 46.22 46.82 7.64 o
-3 2 4 4.38 1.94 1.20 o
-2 2 4 21.38 26.16 2.97 o
-1 2 4 2.43 1.66 0.59 o
0 2 4 59.25 82.97 2.80 o
1 2 4 2.46 1.70 0.59 o
2 2 4 21.46 27.55 3.63 o
3 2 4 4.38 5.38 1.87 o
-3 3 4 59.18 74.27 6.46 o
-2 3 4 14.52 11.48 2.06 o
-1 3 4 17.64 17.58 1.28 o
0 3 4 0.22 2.25 0.64 o
1 3 4 17.59 21.40 1.72 o
2 3 4 14.48 13.16 2.00 o
3 3 4 59.16 72.97 23.13 o
-3 4 4 0.82 3.10 2.98 o
-2 4 4 16.05 16.18 2.46 o
-1 4 4 44.09 51.37 3.55 o
0 4 4 74.78 84.67 4.22 o
1 4 4 43.97 53.80 5.03 o
2 4 4 16.06 13.88 2.19 o
3 4 4 0.83 1.25 2.75 o
-3 5 4 0.09 2.98 2.86 o
-2 5 4 17.70 16.81 3.56 o
-1 5 4 2.49 2.81 1.26 o
0 5 4 72.94 106.73 3.13 o
1 5 4 2.48 3.68 1.25 o
2 5 4 17.68 18.33 3.31 o
1 0 5 1896.15 1311.95 210.62 o
2 0 5 12.21 11.24 3.02 o
3 0 5 0.55 0.47 0.62 o
-3 1 5 68.73 61.27 2.30 o
-2 1 5 19.75 22.22 7.66 o
-1 1 5 8.78 5.87 0.36 o
1 1 5 8.75 5.71 0.46 o
2 1 5 19.67 17.94 3.50 o
3 1 5 68.76 60.56 2.32 o
-3 2 5 23.17 11.93 1.68 o
-2 2 5 204.39 156.65 24.87 o
-1 2 5 25.99 29.28 6.02 o
0 2 5 77.48 80.91 2.66 o
1 2 5 26.07 35.50 6.36 o
2 2 5 204.31 192.60 20.63 o
3 2 5 23.19 16.14 2.49 o
-3 3 5 6.25 2.99 1.39 o
-2 3 5 4.88 4.86 1.03 o
-1 3 5 7.88 10.97 1.30 o
0 3 5 0.24 1.81 0.68 o
1 3 5 7.87 8.54 1.26 o
2 3 5 4.84 4.85 1.21 o
3 3 5 6.27 3.60 2.98 o
-3 4 5 5.69 4.67 2.49 o
-2 4 5 7.19 8.48 2.40 o
-1 4 5 80.07 119.57 6.87 o
0 4 5 9.08 3.63 1.24 o
1 4 5 80.03 111.72 4.84 o
2 4 5 7.20 6.18 2.13 o
3 4 5 5.69 4.16 2.06 o
-2 5 5 8.38 6.40 2.69 o
-1 5 5 29.95 19.82 2.92 o
0 5 5 8.18 6.18 1.57 o
1 5 5 29.89 19.99 3.29 o
2 5 5 8.36 8.45 3.23 o
1 0 6 0.67 0.62 0.49 o
2 0 6 237.71 147.22 15.37 o
3 0 6 10.09 7.88 1.12 o
-3 1 6 82.39 74.87 8.93 o
-2 1 6 273.68 246.45 9.60 o
-1 1 6 171.69 126.08 21.27 o
1 1 6 171.57 198.80 35.74 o
2 1 6 273.60 259.19 6.32 o
3 1 6 82.44 80.86 8.80 o
-3 2 6 8.59 10.39 3.24 o
-2 2 6 21.95 13.30 0.94 o
-1 2 6 2.19 0.93 0.52 o
1 2 6 2.21 1.08 0.91 o
2 2 6 21.95 14.86 1.19 o
3 2 6 8.57 7.55 1.92 o
-3 3 6 52.63 40.82 3.62 o
-2 3 6 98.73 132.28 3.25 o
-1 3 6 0.51 0.10 0.88 o
0 3 6 81.95 84.75 5.36 o
1 3 6 0.51 0.07 1.01 o
2 3 6 98.88 130.00 5.39 o
3 3 6 52.64 41.16 3.66 o
-3 4 6 0.00 2.98 1.83 o
-2 4 6 14.91 20.58 2.68 o
-1 4 6 6.21 4.77 1.36 o
0 4 6 0.17 1.18 1.18 o
1 4 6 6.24 3.52 1.67 o
2 4 6 14.86 20.98 2.18 o
3 4 6 0.00 2.66 1.99 o
-2 5 6 12.28 11.58 2.72 o
-1 5 6 8.25 7.03 2.20 o
0 5 6 0.08 0.08 1.90 o
1 5 6 8.25 6.21 2.97 o
2 5 6 12.31 5.42 2.51 o
1 0 7 158.66 101.78 8.52 o
2 0 7 99.09 121.10 1.81 o
3 0 7 0.79 1.85 0.67 o
4 0 7 47.14 50.05 4.81 o
-4 1 7 0.17 0.90 1.46 o
-3 1 7 12.27 13.76 1.99 o
-2 1 7 57.83 58.76 7.00 o
-1 1 7 97.14 101.37 12.69 o
1 1 7 97.25 110.41 11.46 o
2 1 7 57.80 57.68 5.98 o
3 1 7 12.26 16.02 2.67 o
4 1 7 0.17 1.21 3.18 o
-4 2 7 12.77 13.91 3.51 o
-3 2 7 220.62 215.37 5.70 o
-2 2 7 42.31 40.61 5.91 o
-1 2 7 39.12 41.45 4.66 o
1 2 7 39.07 36.22 4.11 o
2 2 7 42.24 43.78 4.98 o
3 2 7 220.64 219.86 4.01 o
4 2 7 12.79 13.66 2.97 o
-4 3 7 0.04 3.13 3.53 o
-3 3 7 1.50 2.96 1.33 o
-2 3 7 1.06 3.49 1.39 o
-1 3 7 47.70 53.28 5.46 o
1 3 7 47.65 53.70 2.96 o
2 3 7 1.07 1.92 1.10 o
3 3 7 1.51 4.13 1.46 o
-3 4 7 3.09 4.83 1.92 o
-2 4 7 4.56 3.65 1.95 o
-1 4 7 6.03 14.10 2.53 o
0 4 7 2.02 2.73 1.32 o
1 4 7 6.01 10.88 2.22 o
2 4 7 4.55 4.06 2.23 o
3 4 7 3.10 3.42 1.53 o
-2 5 7 6.06 4.78 2.35 o
-1 5 7 4.20 3.49 2.83 o
0 5 7 6.16 13.72 10.20 o
1 5 7 4.18 3.46 2.51 o
2 5 7 6.06 4.86 2.63 o
1 0 8 102.41 70.62 8.55 o
2 0 8 4.20 1.89 0.76 o
3 0 8 18.19 17.35 2.84 o
4 0 8 1.72 2.78 1.64 o
-4 1 8 15.55 11.84 3.43 o
-3 1 8 9.43 5.69 1.81 o
-2 1 8 92.88 98.04 1.40 o
-1 1 8 133.38 201.94 17.27 o
1 1 8 133.28 171.86 18.78 o
2 1 8 92.98 100.03 1.84 o
3 1 8 9.43 8.34 1.61 o
4 1 8 15.54 10.33 4.79 o
-4 2 8 1.99 4.75 2.25 o
-3 2 8 5.39 1.85 1.31 o
-2 2 8 7.51 8.00 1.21 o
-1 2 8 7.03 5.42 0.97 o
1 2 8 7.03 5.20 1.52 o
2 2 8 7.49 7.63 1.22 o
3 2 8 5.40 3.29 1.39 o
4 2 8 1.99 2.96 1.99 o
-4 3 8 9.67 9.23 3.14 o
-3 3 8 1.89 1.76 1.91 o
-2 3 8 92.94 100.53 3.64 o
-1 3 8 5.55 3.02 0.84 o
1 3 8 5.56 3.15 1.96 o
2 3 8 92.89 96.45 3.49 o
3 3 8 1.90 1.82 1.66 o
4 3 8 9.67 6.58 2.96 o
-3 4 8 0.55 0.24 1.51 o
-2 4 8 0.98 2.86 1.67 o
-1 4 8 23.51 18.86 3.35 o
1 4 8 23.54 18.08 4.15 o
2 4 8 0.99 3.51 1.57 o
3 4 8 0.55 0.25 1.24 o
-2 5 8 2.92 3.45 2.03 o
-1 5 8 9.56 5.16 2.75 o
1 5 8 9.56 8.36 2.79 o
2 5 8 2.92 4.55 2.38 o
1 0 9 127.26 159.07 5.30 o
2 0 9 88.27 66.25 8.20 o
3 0 9 1.53 3.45 1.10 o
4 0 9 17.83 25.02 5.64 o
-4 1 9 1.68 3.76 1.61 o
-3 1 9 5.11 5.29 1.59 o
-2 1 9 41.86 58.56 7.40 o
-1 1 9 3.57 2.44 1.77 o
1 1 9 3.56 2.18 1.33 o
2 1 9 41.90 48.64 11.51 o
3 1 9 5.12 7.06 1.90 o
4 1 9 1.68 4.76 2.33 o
-4 2 9 2.50 3.66 1.72 o
-3 2 9 36.11 20.36 3.92 o
-2 2 9 25.79 19.42 3.08 o
-1 2 9 6.02 8.02 3.85 o
1 2 9 6.03 4.46 1.70 o
2 2 9 25.84 20.13 2.00 o
3 2 9 36.10 40.97 6.02 o
4 2 9 2.49 3.34 1.89 o
-4 3 9 0.75 2.20 1.68 o
-3 3 9 10.91 8.00 2.33 o
-2 3 9 7.00 4.11 1.72 o
-1 3 9 4.26 2.71 1.75 o
1 3 9 4.22 2.07 1.15 o
2 3 9 7.01 8.32 2.87 o
3 3 9 10.90 8.18 2.65 o
4 3 9 0.75 3.76 2.14 o
-3 4 9 5.28 6.35 2.03 o
-2 4 9 5.40 3.32 1.57 o
-1 4 9 34.49 39.28 7.47 o
1 4 9 34.53 38.96 4.70 o
2 4 9 5.40 3.16 1.32 o
3 4 9 5.28 6.03 1.80 o
-1 5 9 16.10 13.24 10.13 o
1 5 9 16.10 12.78 4.52 o
2 0 10 7.61 6.85 1.50 o
3 0 10 11.00 9.33 2.44 o
4 0 10 0.16 4.22 2.15 o
-4 1 10 5.95 4.28 1.73 o
-3 1 10 17.94 24.83 1.43 o
-2 1 10 2.74 3.03 1.42 o
2 1 10 2.76 2.60 1.07 o
3 1 10 17.91 24.16 1.68 o
4 1 10 5.94 5.14 1.62 o
-4 2 10 1.09 0.39 1.89 o
-3 2 10 5.38 4.42 1.52 o
-2 2 10 20.34 13.53 1.78 o
-1 2 10 9.69 15.18 4.68 o
1 2 10 9.68 6.42 2.88 o
2 2 10 20.33 13.64 2.82 o
3 2 10 5.38 5.01 1.81 o
4 2 10 1.09 0.37 1.68 o
-4 3 10 2.25 4.84 2.11 o
-3 3 10 13.54 15.16 3.79 o
-2 3 10 8.00 8.18 2.27 o
1 3 10 4.26 5.60 1.58 o
2 3 10 7.98 7.07 1.73 o
3 3 10 13.53 8.47 2.98 o
4 3 10 2.25 4.34 2.11 o
-3 4 10 0.85 4.13 1.95 o
-2 4 10 9.69 7.20 2.64 o
-1 4 10 2.88 2.33 3.68 o
1 4 10 2.88 2.66 2.94 o
2 4 10 9.70 11.48 2.24 o
3 4 10 0.85 2.41 1.52 o
2 0 11 7.19 9.12 1.51 o
3 0 11 3.38 5.60 1.62 o
4 0 11 0.05 2.82 1.52 o
-4 1 11 1.83 0.80 1.74 o
-3 1 11 6.72 5.83 1.71 o
-2 1 11 12.96 7.35 2.96 o
2 1 11 12.99 11.82 2.11 o
3 1 11 6.71 4.81 1.68 o
4 1 11 1.83 0.83 1.59 o
-4 2 11 7.00 5.92 2.43 o
-3 2 11 1.14 3.61 1.79 o
-2 2 11 25.98 34.20 4.74 o
2 2 11 26.01 33.60 4.79 o
3 2 11 1.13 5.40 1.90 o
4 2 11 6.98 11.88 2.82 o
-3 3 11 5.58 8.78 2.93 o
-2 3 11 4.63 7.16 2.38 o
2 3 11 4.64 5.44 2.66 o
3 3 11 5.59 8.43 2.82 o
-2 4 11 2.03 2.62 3.77 o
2 4 11 2.03 3.24 2.59 o
2 0 12 2.05 1.33 0.97 o
3 0 12 7.55 9.08 2.53 o
4 0 12 2.45 4.02 2.36 o
-4 1 12 0.17 0.09 1.62 o
-3 1 12 4.94 4.06 1.58 o
-2 1 12 1.93 1.07 1.99 o
2 1 12 1.93 1.06 1.21 o
3 1 12 4.94 4.36 1.52 o
4 1 12 0.17 0.07 1.82 o
-4 2 12 5.35 6.35 2.63 o
-3 2 12 1.44 3.75 1.52 o
-2 2 12 39.51 46.35 16.74 o
2 2 12 39.52 62.01 16.28 o
3 2 12 1.44 3.25 1.50 o
4 2 12 5.35 7.59 2.35 o
-3 3 12 5.28 6.96 3.50 o
-2 3 12 2.75 1.96 3.07 o
2 3 12 2.77 5.46 2.97 o
3 3 12 5.28 4.43 2.31 o
-2 4 12 1.91 1.85 3.34 o
2 4 12 1.91 1.18 4.48 o
2 0 13 0.05 1.36 1.28 o
3 0 13 0.01 3.49 2.04 o
4 0 13 0.42 2.69 1.70 o
-4 1 13 0.29 0.02 1.79 o
-3 1 13 2.07 4.50 1.46 o
-2 1 13 0.74 1.75 1.65 o
2 1 13 0.74 2.05 2.01 o
3 1 13 2.08 4.30 1.49 o
4 1 13 0.29 0.07 2.23 o
-3 2 13 0.28 0.29 1.93 o
2 2 13 3.62 3.62 2.48 o
3 2 13 0.27 0.34 1.60 o
-3 3 13 0.26 3.14 2.04 o
2 3 13 0.03 5.71 4.07 o
3 3 13 0.26 2.29 2.22 o
3 0 14 2.37 4.08 3.75 o
4 0 14 0.14 0.59 1.90 o
-3 1 14 0.09 2.83 1.54 o
3 1 14 0.09 2.30 1.55 o
-3 2 14 1.11 2.24 2.19 o
3 2 14 1.12 2.43 1.50 o
3 0 15 0.67 1.40 3.03 o
-3 1 15 3.38 3.00 2.74 o
3 1 15 3.38 4.08 2.38 o
-3 2 15 6.15 1.66 2.93 o
3 2 15 6.14 2.26 6.27 o
