#------------------------------------------------------------------------------
#$Date: 2016-03-26 18:13:32 +0200 (Sat, 26 Mar 2016) $
#$Revision: 180417 $
#$URL: svn://www.crystallography.net/cod/cif/7/20/86/7208662.cif $
#------------------------------------------------------------------------------
#
# This file is available in the Crystallography Open Database (COD),
# http://www.crystallography.net/
#
# All data on this site have been placed in the public domain by the
# contributors.
#
data_7208662
loop_
_publ_author_name
'Podsiad\/lo, Marcin'
'Patyk, Ewa'
'Katrusiak, Andrzej'
_publ_section_title
;
 Chiral aggregation hierarchy in high-pressure resolved 2-butanol and
 2,3-butanediol
;
_journal_issue                   20
_journal_name_full               CrystEngComm
_journal_page_first              6419
_journal_paper_doi               10.1039/c2ce25372k
_journal_volume                  14
_journal_year                    2012
_chemical_formula_moiety         'C4 H10 O'
_chemical_formula_sum            'C4 H10 O'
_chemical_formula_weight         74.12
_chemical_melting_point          158
_chemical_name_common            2-butanol
_chemical_name_systematic
;
2-butanol
;
_space_group_IT_number           19
_symmetry_cell_setting           orthorhombic
_symmetry_space_group_name_Hall  'P 2ac 2ab'
_symmetry_space_group_name_H-M   'P 21 21 21'
_atom_sites_solution_hydrogens   geom
_atom_sites_solution_primary     direct
_atom_sites_solution_secondary   difmap
_audit_creation_method           SHELXL-97
_cell_angle_alpha                90.00
_cell_angle_beta                 90.00
_cell_angle_gamma                90.00
_cell_formula_units_Z            4
_cell_length_a                   5.0580(10)
_cell_length_b                   5.2221(10)
_cell_length_c                   16.054(3)
_cell_measurement_reflns_used    3268
_cell_measurement_temperature    295(2)
_cell_measurement_theta_max      24.94
_cell_measurement_theta_min      4.10
_cell_volume                     424.04(14)
_computing_cell_refinement       'CrysAlisRED (Oxford Diffraction, 2004)'
_computing_data_collection       'CrysAlisCCD (Oxford Diffraction, 2004)'
_computing_data_reduction
'CrysAlisRED (Oxford Diffraction, 2004); REDSHABS (Katrusiak, A. 2003)'
_computing_molecular_graphics    'SHELXTL (Sheldrick, 1990)'
_computing_publication_material  'SHELXL--97 (Sheldrick, 1997)'
_computing_structure_refinement  'SHELXL--97 (Sheldrick, 1997)'
_computing_structure_solution    'SHELXS--97 (Sheldrick, 1997)'
_diffrn_ambient_environment      'diamond-anvil cell'
_diffrn_ambient_pressure         2140000
_diffrn_ambient_temperature      295(2)
_diffrn_measured_fraction_theta_full 0.756
_diffrn_measured_fraction_theta_max 0.756
_diffrn_measurement_device_type  'KM-4 CCD'
_diffrn_measurement_method       '\f- and \w-scans'
_diffrn_radiation_monochromator  graphite
_diffrn_radiation_source         'fine-focus sealed tube'
_diffrn_radiation_type           MoK\a
_diffrn_radiation_wavelength     0.71073
_diffrn_reflns_av_R_equivalents  0.1303
_diffrn_reflns_av_sigmaI/netI    0.0944
_diffrn_reflns_limit_h_max       5
_diffrn_reflns_limit_h_min       -5
_diffrn_reflns_limit_k_max       6
_diffrn_reflns_limit_k_min       -6
_diffrn_reflns_limit_l_max       16
_diffrn_reflns_limit_l_min       -17
_diffrn_reflns_number            3268
_diffrn_reflns_theta_full        24.94
_diffrn_reflns_theta_max         24.94
_diffrn_reflns_theta_min         4.10
_diffrn_standards_decay_%        0
_diffrn_standards_interval_count 0
_diffrn_standards_number         0
_exptl_absorpt_coefficient_mu    0.080
_exptl_absorpt_correction_T_max  0.84
_exptl_absorpt_correction_T_min  0.36
_exptl_absorpt_correction_type   numerical
_exptl_absorpt_process_details
;
Correction for absorption of the diamond-anvil cell and the sample
were made using program REDSHABS (Katrusiak, A. (2003) REDSHABS. Adam
Mickiewicz University Pozna\'n; Katrusiak, A. (2004) Z. Kristallogr.
219, 461-467).
;
_exptl_crystal_colour            colourless
_exptl_crystal_density_diffrn    1.161
_exptl_crystal_density_method    'not measured'
_exptl_crystal_description       cylinder
_exptl_crystal_F_000             168
_exptl_crystal_size_max          0.46
_exptl_crystal_size_mid          0.46
_exptl_crystal_size_min          0.22
_refine_diff_density_max         0.242
_refine_diff_density_min         -0.157
_refine_diff_density_rms         0.047
_refine_ls_abs_structure_details 'Flack H D (1983), Acta Cryst. A39, 876-881'
_refine_ls_abs_structure_Flack   2(9)
_refine_ls_extinction_method     none
_refine_ls_goodness_of_fit_ref   1.025
_refine_ls_hydrogen_treatment    constr
_refine_ls_matrix_type           full
_refine_ls_number_parameters     46
_refine_ls_number_reflns         565
_refine_ls_number_restraints     30
_refine_ls_restrained_S_all      1.247
_refine_ls_R_factor_all          0.1265
_refine_ls_R_factor_gt           0.0805
_refine_ls_shift/su_max          0.000
_refine_ls_shift/su_mean         0.000
_refine_ls_structure_factor_coef Fsqd
_refine_ls_weighting_details
'calc w=1/[\s^2^(Fo^2^)+(0.1091P)^2^+0.0000P] where P=(Fo^2^+2Fc^2^)/3'
_refine_ls_weighting_scheme      calc
_refine_ls_wR_factor_gt          0.2045
_refine_ls_wR_factor_ref         0.2255
_reflns_number_gt                320
_reflns_number_total             565
_reflns_threshold_expression     >2sigma(I)
_cod_data_source_file            c2ce25372k.txt
_cod_data_source_block           2but_2.14GPa
_cod_database_code               7208662
loop_
_symmetry_equiv_pos_as_xyz
'x, y, z'
'-x+1/2, -y, z+1/2'
'-x, y+1/2, -z+1/2'
'x+1/2, -y+1/2, -z'
loop_
_atom_site_label
_atom_site_type_symbol
_atom_site_fract_x
_atom_site_fract_y
_atom_site_fract_z
_atom_site_U_iso_or_equiv
_atom_site_adp_type
_atom_site_occupancy
_atom_site_symmetry_multiplicity
_atom_site_calc_flag
_atom_site_refinement_flags
O1 O 0.0740(11) 0.3512(7) 0.7733(3) 0.0748(18) Uani 1 1 d U
H1 H 0.0252 0.4930 0.7576 0.112 Uiso 1 1 calc R
C1 C -0.1157(19) 0.6174(10) 0.9240(5) 0.083(3) Uani 1 1 d U
H11 H -0.2057 0.6184 0.9767 0.124 Uiso 1 1 calc R
H12 H -0.2424 0.5980 0.8800 0.124 Uiso 1 1 calc R
H13 H -0.0220 0.7758 0.9170 0.124 Uiso 1 1 calc R
C2 C 0.0859(18) 0.3877(11) 0.9215(5) 0.073(2) Uani 1 1 d U
H21 H 0.2119 0.4064 0.9667 0.087 Uiso 1 1 calc R
H22 H -0.0089 0.2283 0.9299 0.087 Uiso 1 1 calc R
C3 C 0.2249(16) 0.3769(9) 0.8443(5) 0.0542(19) Uani 1 1 d U
H31 H 0.3269 0.5357 0.8390 0.065 Uiso 1 1 calc R
C4 C 0.4239(15) 0.1515(10) 0.8452(4) 0.057(2) Uani 1 1 d U
H41 H 0.5167 0.1460 0.7930 0.086 Uiso 1 1 calc R
H42 H 0.3302 -0.0064 0.8532 0.086 Uiso 1 1 calc R
H43 H 0.5480 0.1752 0.8897 0.086 Uiso 1 1 calc R
loop_
_atom_site_aniso_label
_atom_site_aniso_U_11
_atom_site_aniso_U_22
_atom_site_aniso_U_33
_atom_site_aniso_U_23
_atom_site_aniso_U_13
_atom_site_aniso_U_12
O1 0.104(4) 0.042(2) 0.078(3) 0.000(2) -0.023(2) 0.006(3)
C1 0.108(9) 0.035(3) 0.105(7) -0.003(3) 0.009(4) 0.005(4)
C2 0.081(5) 0.054(3) 0.083(4) 0.011(3) -0.011(3) 0.002(3)
C3 0.069(4) 0.021(2) 0.073(4) 0.007(3) -0.003(3) -0.006(3)
C4 0.060(6) 0.038(3) 0.074(5) 0.004(3) 0.017(3) 0.019(4)
loop_
_atom_type_symbol
_atom_type_description
_atom_type_scat_dispersion_real
_atom_type_scat_dispersion_imag
_atom_type_scat_source
C C 0.0033 0.0016 'International Tables Vol C Tables 4.2.6.8 and 6.1.1.4'
H H 0.0000 0.0000 'International Tables Vol C Tables 4.2.6.8 and 6.1.1.4'
O O 0.0106 0.0060 'International Tables Vol C Tables 4.2.6.8 and 6.1.1.4'
loop_
_geom_angle_atom_site_label_1
_geom_angle_atom_site_label_2
_geom_angle_atom_site_label_3
_geom_angle
C3 O1 H1 109.5
C2 C1 H11 109.5
C2 C1 H12 109.5
H11 C1 H12 109.5
C2 C1 H13 109.5
H11 C1 H13 109.5
H12 C1 H13 109.5
C3 C2 C1 111.8(5)
C3 C2 H21 109.3
C1 C2 H21 109.3
C3 C2 H22 109.3
C1 C2 H22 109.3
H21 C2 H22 107.9
O1 C3 C2 116.7(8)
O1 C3 C4 107.0(5)
C2 C3 C4 110.1(5)
O1 C3 H31 107.6
C2 C3 H31 107.6
C4 C3 H31 107.6
C3 C4 H41 109.5
C3 C4 H42 109.5
H41 C4 H42 109.5
C3 C4 H43 109.5
H41 C4 H43 109.5
H42 C4 H43 109.5
loop_
_geom_bond_atom_site_label_1
_geom_bond_atom_site_label_2
_geom_bond_distance
O1 C3 1.378(8)
O1 H1 0.8200
C1 C2 1.575(10)
C1 H11 0.9600
C1 H12 0.9600
C1 H13 0.9600
C2 C3 1.426(11)
C2 H21 0.9700
C2 H22 0.9700
C3 C4 1.549(8)
C3 H31 0.9800
C4 H41 0.9600
C4 H42 0.9600
C4 H43 0.9600
loop_
_geom_torsion_atom_site_label_1
_geom_torsion_atom_site_label_2
_geom_torsion_atom_site_label_3
_geom_torsion_atom_site_label_4
_geom_torsion
C1 C2 C3 O1 -58.7(8)
C1 C2 C3 C4 179.1(6)
loop_
_refln_index_h
_refln_index_k
_refln_index_l
_refln_F_squared_calc
_refln_F_squared_meas
_refln_F_squared_sigma
_refln_observed_status
1 1 0 129.39 125.69 1.61 o
0 2 0 24.23 25.14 1.30 o
1 2 0 910.90 1001.70 3.77 o
2 2 0 55.13 55.05 3.90 o
1 3 0 36.13 33.69 1.53 o
2 3 0 106.22 110.42 3.31 o
3 3 0 4.49 5.03 2.42 o
0 4 0 673.15 788.66 6.64 o
1 4 0 34.75 31.61 3.12 o
2 4 0 0.61 0.96 1.68 o
3 4 0 3.63 5.29 2.69 o
1 5 0 5.82 8.76 3.48 o
2 5 0 5.98 3.90 2.10 o
3 5 0 2.10 5.07 3.06 o
1 6 0 4.96 11.42 4.10 o
-2 1 1 200.97 164.81 9.15 o
-1 1 1 1553.27 1589.65 12.32 o
0 1 1 416.18 428.02 1.98 o
1 1 1 1553.70 1562.57 13.96 o
-3 2 1 2.47 1.69 3.23 o
-2 2 1 8.59 6.02 2.24 o
-1 2 1 370.73 411.23 15.88 o
0 2 1 260.50 297.78 1.83 o
1 2 1 370.50 418.02 10.56 o
2 2 1 8.58 5.49 2.03 o
3 2 1 2.46 1.16 3.65 o
-3 3 1 5.33 2.46 1.00 o
-2 3 1 91.28 87.07 3.21 o
-1 3 1 248.58 271.52 3.81 o
0 3 1 20.62 23.63 1.35 o
1 3 1 248.55 273.23 2.97 o
2 3 1 91.26 86.91 2.44 o
3 3 1 5.34 5.21 1.54 o
-4 4 1 0.58 1.14 5.02 o
-3 4 1 5.05 3.62 2.59 o
-2 4 1 0.94 0.82 1.82 o
-1 4 1 36.92 39.42 3.36 o
0 4 1 1.50 4.62 2.12 o
1 4 1 36.87 39.92 3.48 o
2 4 1 0.95 0.76 1.24 o
3 4 1 5.05 4.98 2.50 o
-3 5 1 12.30 7.96 3.63 o
-2 5 1 1.43 6.86 1.99 o
-1 5 1 54.56 72.64 5.58 o
0 5 1 12.61 19.19 1.66 o
1 5 1 54.60 70.74 7.11 o
2 5 1 1.43 5.39 2.01 o
3 5 1 12.27 8.96 3.09 o
-1 6 1 11.58 19.25 3.01 o
0 6 1 10.39 21.94 5.71 o
1 6 1 11.53 20.12 4.06 o
1 0 2 684.94 633.38 2.90 o
-2 1 2 49.28 65.26 2.99 o
-1 1 2 137.53 147.06 1.70 o
0 1 2 952.35 1161.99 77.93 o
1 1 2 137.76 143.06 1.24 o
2 1 2 49.11 63.66 4.12 o
-3 2 2 2.33 2.21 1.55 o
-2 2 2 425.22 410.84 4.16 o
-1 2 2 344.79 345.50 2.15 o
0 2 2 28.50 33.81 2.14 o
1 2 2 344.63 347.23 2.44 o
2 2 2 425.02 407.91 4.78 o
3 2 2 2.33 0.84 2.72 o
-3 3 2 1.66 3.02 2.44 o
-2 3 2 27.92 27.13 3.79 o
-1 3 2 37.29 42.62 2.38 o
0 3 2 58.72 81.86 1.53 o
1 3 2 37.29 44.95 3.89 o
2 3 2 27.95 32.89 3.88 o
3 3 2 1.65 3.14 2.56 o
-4 4 2 3.63 1.10 4.45 o
-3 4 2 1.49 8.00 3.55 o
-2 4 2 0.04 0.63 1.51 o
-1 4 2 60.77 68.58 5.38 o
0 4 2 19.16 20.48 2.01 o
1 4 2 60.70 67.73 4.73 o
2 4 2 0.04 0.65 1.27 o
3 4 2 1.49 2.09 1.81 o
-3 5 2 0.36 5.60 3.99 o
-2 5 2 1.40 1.55 1.76 o
-1 5 2 6.15 10.57 4.84 o
0 5 2 65.50 68.95 6.36 o
1 5 2 6.16 8.61 3.28 o
2 5 2 1.38 1.56 2.30 o
3 5 2 0.35 3.72 2.58 o
-1 6 2 5.09 4.62 3.27 o
0 6 2 13.27 10.16 4.74 o
1 6 2 5.10 3.86 3.02 o
1 0 3 34.34 28.60 5.20 o
2 0 3 4.41 9.50 1.88 o
-3 1 3 0.10 3.00 2.44 o
-2 1 3 31.35 31.30 2.03 o
-1 1 3 224.10 194.35 33.25 o
0 1 3 1236.42 1359.95 158.64 o
1 1 3 224.42 214.58 19.28 o
2 1 3 31.33 32.29 2.23 o
-3 2 3 45.48 52.50 5.11 o
-2 2 3 25.20 15.29 2.16 o
-1 2 3 43.80 55.71 1.32 o
0 2 3 287.28 291.14 7.80 o
1 2 3 43.74 59.23 1.26 o
2 2 3 25.22 16.56 5.95 o
3 2 3 45.51 51.53 8.96 o
-4 3 3 0.41 0.11 2.77 o
-3 3 3 5.77 11.58 5.56 o
-2 3 3 29.02 23.30 2.22 o
-1 3 3 149.32 147.40 1.99 o
0 3 3 81.24 93.57 1.94 o
1 3 3 149.16 150.71 2.49 o
2 3 3 28.97 23.67 2.53 o
3 3 3 5.76 12.54 8.33 o
-4 4 3 4.17 5.53 5.31 o
-3 4 3 3.86 3.23 2.55 o
-2 4 3 5.99 6.29 2.03 o
-1 4 3 2.44 4.27 1.14 o
0 4 3 26.24 23.92 2.40 o
1 4 3 2.44 4.51 1.54 o
2 4 3 6.00 5.41 1.73 o
3 4 3 3.85 2.80 1.50 o
-3 5 3 3.89 5.44 3.14 o
-2 5 3 0.17 0.01 1.86 o
-1 5 3 0.31 0.25 1.67 o
0 5 3 72.24 99.16 5.57 o
1 5 3 0.30 0.27 1.83 o
2 5 3 0.17 0.01 2.13 o
3 5 3 3.87 2.75 3.62 o
-1 6 3 14.84 19.04 6.06 o
0 6 3 3.35 4.51 3.53 o
1 6 3 14.82 18.87 7.91 o
1 0 4 584.15 525.78 3.19 o
2 0 4 53.13 46.63 6.32 o
3 0 4 9.53 2.89 6.24 o
-3 1 4 49.51 52.99 17.14 o
-2 1 4 58.91 59.59 8.96 o
-1 1 4 7.03 7.88 0.45 o
0 1 4 175.37 202.94 8.40 o
1 1 4 7.08 7.81 0.30 o
2 1 4 58.77 48.17 11.67 o
-4 2 4 0.47 4.03 2.94 o
-3 2 4 5.36 3.91 1.40 o
-2 2 4 4.86 5.99 1.18 o
-1 2 4 4.56 6.21 1.47 o
0 2 4 2.84 3.56 0.71 o
1 2 4 4.58 3.23 1.42 o
2 2 4 4.84 6.91 1.14 o
3 2 4 5.36 2.58 2.66 o
-4 3 4 8.37 4.03 2.82 o
-3 3 4 44.94 40.09 4.83 o
-2 3 4 10.29 8.76 1.90 o
-1 3 4 4.20 5.37 1.12 o
0 3 4 3.45 6.37 1.44 o
1 3 4 4.20 5.97 1.30 o
2 3 4 10.31 8.68 1.65 o
3 3 4 44.92 40.13 5.76 o
-4 4 4 3.14 0.27 3.86 o
-3 4 4 1.09 4.19 4.18 o
-2 4 4 16.82 18.48 2.98 o
-1 4 4 46.00 58.62 2.34 o
0 4 4 20.75 15.68 2.56 o
1 4 4 45.91 57.90 2.15 o
2 4 4 16.83 12.80 3.05 o
3 4 4 1.08 4.18 4.39 o
-3 5 4 1.37 5.58 3.95 o
-2 5 4 9.58 9.33 3.89 o
-1 5 4 3.42 3.50 1.75 o
0 5 4 6.43 6.35 2.36 o
1 5 4 3.40 5.43 2.29 o
2 5 4 9.55 12.95 3.89 o
3 5 4 1.37 6.00 3.49 o
0 6 4 0.66 0.65 2.76 o
1 0 5 1657.81 1716.12 4.14 o
2 0 5 15.93 9.98 2.26 o
3 0 5 2.04 1.43 1.17 o
-3 1 5 31.89 27.14 3.20 o
-2 1 5 5.01 3.72 1.76 o
-1 1 5 1.23 0.74 0.50 o
0 1 5 197.08 225.83 17.95 o
1 1 5 1.22 0.89 0.42 o
2 1 5 4.97 9.76 1.70 o
3 1 5 31.91 27.48 5.96 o
-4 2 5 11.03 9.72 2.65 o
-3 2 5 10.94 12.44 3.11 o
-2 2 5 166.36 170.03 26.76 o
-1 2 5 20.03 15.50 1.82 o
0 2 5 104.18 107.25 0.95 o
1 2 5 20.09 13.56 3.50 o
2 2 5 166.33 203.53 20.28 o
3 2 5 10.96 17.98 5.27 o
-4 3 5 0.04 2.87 2.25 o
-3 3 5 19.79 17.39 4.36 o
-2 3 5 1.98 2.66 1.21 o
-1 3 5 5.99 8.10 1.43 o
0 3 5 13.54 9.62 1.52 o
1 3 5 5.97 7.57 1.33 o
2 3 5 1.97 2.19 0.90 o
3 3 5 19.81 17.44 5.15 o
4 3 5 0.04 4.04 5.59 o
-4 4 5 0.01 0.01 4.41 o
-3 4 5 0.78 4.30 4.62 o
-2 4 5 8.09 8.65 1.76 o
-1 4 5 64.68 72.05 3.56 o
0 4 5 23.10 24.01 2.46 o
1 4 5 64.68 71.06 3.67 o
2 4 5 8.10 7.77 1.76 o
3 4 5 0.77 4.90 4.11 o
4 4 5 0.01 0.01 6.61 o
-3 5 5 1.78 0.47 8.04 o
-2 5 5 2.24 3.53 3.20 o
-1 5 5 8.27 6.78 2.04 o
0 5 5 16.73 16.07 2.67 o
1 5 5 8.26 6.40 1.97 o
2 5 5 2.23 4.85 3.13 o
3 5 5 1.78 7.23 5.39 o
1 0 6 0.98 1.71 0.39 o
2 0 6 184.61 175.70 36.75 o
3 0 6 11.41 3.80 2.08 o
-4 1 6 30.07 28.98 8.27 o
-3 1 6 75.28 72.43 2.35 o
-2 1 6 245.43 235.16 36.91 o
-1 1 6 130.48 125.12 2.39 o
0 1 6 156.75 165.31 7.96 o
1 1 6 130.36 120.60 2.85 o
2 1 6 245.36 211.88 26.40 o
3 1 6 75.29 72.86 2.30 o
-4 2 6 2.33 0.00 2.79 o
-3 2 6 7.10 8.15 2.28 o
-2 2 6 16.16 14.15 2.03 o
-1 2 6 1.50 1.29 0.64 o
0 2 6 1.62 1.62 0.90 o
1 2 6 1.52 1.57 0.79 o
2 2 6 16.13 9.81 2.80 o
3 2 6 7.09 5.67 2.14 o
-4 3 6 6.24 10.84 5.83 o
-3 3 6 46.40 38.90 5.37 o
-2 3 6 67.14 68.23 3.83 o
-1 3 6 2.16 2.95 0.87 o
0 3 6 60.89 63.13 2.96 o
1 3 6 2.17 3.13 0.88 o
2 3 6 67.19 68.97 5.59 o
3 3 6 46.41 39.02 7.02 o
4 3 6 6.24 10.94 8.07 o
-4 4 6 4.79 2.75 8.19 o
-3 4 6 2.74 7.73 3.72 o
-2 4 6 17.42 22.12 2.26 o
-1 4 6 1.42 1.67 1.20 o
0 4 6 4.25 6.39 2.00 o
1 4 6 1.42 3.33 1.57 o
2 4 6 17.40 22.42 2.40 o
3 4 6 2.72 2.66 3.09 o
4 4 6 4.80 0.00 15.01 o
-3 5 6 2.84 1.86 4.68 o
-2 5 6 18.24 16.52 6.28 o
-1 5 6 13.64 15.19 2.28 o
0 5 6 0.11 0.01 1.98 o
1 5 6 13.60 14.65 2.91 o
2 5 6 18.25 21.30 5.05 o
3 5 6 2.84 0.40 6.26 o
1 0 7 164.00 160.95 2.17 o
2 0 7 94.88 79.57 5.53 o
3 0 7 0.54 0.95 0.69 o
4 0 7 41.27 30.59 8.36 o
-4 1 7 0.78 2.19 2.20 o
-3 1 7 7.13 6.71 1.83 o
-2 1 7 36.00 27.07 1.30 o
-1 1 7 106.75 122.19 8.87 o
0 1 7 0.03 2.59 1.82 o
1 1 7 106.87 118.52 7.04 o
2 1 7 35.97 26.69 1.47 o
3 1 7 7.13 3.87 2.13 o
-4 2 7 8.61 8.58 5.18 o
-3 2 7 165.32 135.33 5.50 o
-2 2 7 31.08 19.22 2.02 o
-1 2 7 37.56 30.42 4.93 o
0 2 7 25.63 35.24 3.89 o
1 2 7 37.54 31.20 2.06 o
2 2 7 31.05 20.22 2.35 o
3 2 7 165.33 125.87 5.39 o
4 2 7 8.61 6.93 3.48 o
-4 3 7 0.21 0.23 2.36 o
-3 3 7 2.35 5.09 2.41 o
-2 3 7 15.53 12.59 2.25 o
-1 3 7 21.47 25.48 2.55 o
0 3 7 4.21 2.17 1.14 o
1 3 7 21.43 25.56 3.15 o
2 3 7 15.58 9.98 2.42 o
3 3 7 2.35 4.96 2.75 o
4 3 7 0.21 0.23 3.62 o
-4 4 7 9.76 12.57 22.29 o
-3 4 7 1.69 4.54 3.08 o
-2 4 7 5.78 7.52 2.67 o
-1 4 7 11.29 10.42 3.03 o
0 4 7 4.86 4.41 1.56 o
1 4 7 11.29 14.55 4.01 o
2 4 7 5.79 5.83 7.48 o
3 4 7 1.69 3.91 2.40 o
4 4 7 9.77 12.54 11.44 o
-2 5 7 2.61 3.94 5.37 o
-1 5 7 7.34 7.93 2.49 o
0 5 7 3.77 1.35 1.95 o
1 5 7 7.36 6.19 2.95 o
2 5 7 2.61 5.05 2.62 o
1 0 8 75.24 60.46 14.21 o
2 0 8 3.40 4.50 1.27 o
3 0 8 18.03 11.73 2.24 o
4 0 8 0.89 1.13 1.53 o
-4 1 8 11.05 8.01 2.64 o
-3 1 8 7.36 6.36 2.24 o
-2 1 8 76.46 66.96 2.02 o
-1 1 8 119.58 142.25 9.12 o
0 1 8 104.58 85.29 10.21 o
1 1 8 119.53 146.08 6.73 o
2 1 8 76.54 66.29 1.72 o
3 1 8 7.35 7.05 1.81 o
4 1 8 11.05 11.41 9.49 o
-5 2 8 0.22 0.45 4.12 o
-4 2 8 2.72 5.90 6.04 o
-3 2 8 1.03 0.00 2.60 o
-2 2 8 9.40 11.15 1.70 o
-1 2 8 9.07 6.11 1.44 o
0 2 8 1.21 1.97 0.89 o
1 2 8 9.08 7.61 1.61 o
2 2 8 9.40 10.06 2.18 o
3 2 8 1.04 1.03 0.98 o
4 2 8 2.72 6.61 5.23 o
-4 3 8 6.27 8.96 4.33 o
-3 3 8 2.29 5.43 1.58 o
-2 3 8 58.55 57.50 4.02 o
-1 3 8 8.26 8.76 2.32 o
0 3 8 81.51 98.94 4.56 o
1 3 8 8.25 6.34 2.53 o
2 3 8 58.49 57.54 4.09 o
3 3 8 2.30 1.98 2.00 o
4 3 8 6.27 4.58 5.05 o
-3 4 8 4.52 4.94 2.79 o
-2 4 8 0.39 0.79 2.32 o
-1 4 8 15.37 17.84 2.69 o
0 4 8 4.60 2.46 2.05 o
1 4 8 15.39 17.12 3.14 o
2 4 8 0.39 0.98 5.18 o
3 4 8 4.52 4.59 3.15 o
-2 5 8 2.16 4.94 4.11 o
-1 5 8 15.06 22.33 3.04 o
0 5 8 0.10 0.09 2.46 o
1 5 8 15.07 22.56 3.42 o
2 5 8 2.17 5.74 6.04 o
1 0 9 84.34 80.81 3.03 o
2 0 9 70.90 72.56 6.34 o
3 0 9 1.47 3.17 1.07 o
4 0 9 14.26 10.70 3.76 o
-4 1 9 0.72 0.42 2.90 o
-3 1 9 3.67 4.82 1.79 o
-2 1 9 26.47 27.37 1.94 o
-1 1 9 3.35 4.94 1.38 o
1 1 9 3.33 3.45 0.89 o
2 1 9 26.49 27.36 2.42 o
3 1 9 3.68 6.85 2.53 o
4 1 9 0.72 0.32 2.43 o
-4 2 9 1.54 3.73 3.26 o
-3 2 9 32.28 23.68 3.99 o
-2 2 9 23.97 16.79 2.79 o
-1 2 9 0.47 2.95 1.64 o
0 2 9 3.19 4.20 1.55 o
1 2 9 0.46 2.72 1.80 o
2 2 9 23.99 18.69 2.55 o
3 2 9 32.26 23.08 3.32 o
4 2 9 1.53 3.77 3.19 o
-4 3 9 0.61 0.37 3.75 o
-3 3 9 7.11 7.28 3.17 o
-2 3 9 11.41 13.76 3.54 o
-1 3 9 1.44 2.47 1.55 o
0 3 9 1.71 1.40 1.41 o
1 3 9 1.44 1.19 1.92 o
2 3 9 11.42 10.54 2.73 o
3 3 9 7.10 6.84 2.63 o
4 3 9 0.61 0.31 3.38 o
-3 4 9 5.31 6.21 2.83 o
-2 4 9 7.59 7.28 3.09 o
-1 4 9 12.67 10.92 3.12 o
0 4 9 0.77 2.62 2.22 o
1 4 9 12.68 8.05 3.28 o
2 4 9 7.59 6.31 2.89 o
3 4 9 5.30 5.13 2.88 o
-2 5 9 3.95 7.99 3.91 o
-1 5 9 2.16 2.24 2.12 o
0 5 9 0.29 0.01 2.73 o
1 5 9 2.15 2.25 3.52 o
2 5 9 3.96 5.39 4.78 o
1 0 10 0.06 2.83 2.85 o
2 0 10 5.10 5.62 1.22 o
3 0 10 4.43 8.97 2.06 o
-5 1 10 0.62 3.20 6.61 o
-4 1 10 4.74 6.42 2.87 o
-3 1 10 10.31 9.03 2.26 o
-2 1 10 3.35 3.06 1.48 o
-1 1 10 29.00 42.09 6.98 o
1 1 10 29.04 42.38 4.46 o
2 1 10 3.37 3.10 1.30 o
3 1 10 10.30 6.84 1.93 o
4 1 10 4.73 4.76 1.88 o
5 1 10 0.62 4.97 7.38 o
-4 2 10 0.00 0.02 2.91 o
-3 2 10 2.95 4.11 2.07 o
-2 2 10 7.29 8.55 1.79 o
-1 2 10 9.74 11.44 1.88 o
0 2 10 0.03 2.56 1.44 o
1 2 10 9.74 11.39 2.48 o
2 2 10 7.30 5.06 1.59 o
3 2 10 2.95 3.57 1.66 o
4 2 10 0.00 0.02 2.22 o
-4 3 10 1.13 2.95 3.83 o
-3 3 10 9.87 9.72 2.62 o
-2 3 10 3.77 4.21 2.16 o
-1 3 10 2.51 0.34 2.11 o
0 3 10 1.98 3.17 1.51 o
1 3 10 2.50 1.37 4.43 o
2 3 10 3.77 3.82 2.39 o
3 3 10 9.87 15.05 3.89 o
4 3 10 1.13 3.08 3.62 o
-3 4 10 1.41 5.32 3.83 o
-2 4 10 4.32 5.63 2.42 o
-1 4 10 1.11 0.00 1.72 o
0 4 10 16.52 11.16 3.93 o
1 4 10 1.11 1.28 1.95 o
2 4 10 4.33 4.32 2.69 o
3 4 10 1.42 4.68 3.36 o
-1 5 10 7.45 4.58 3.55 o
0 5 10 6.81 5.50 3.02 o
1 5 10 7.47 5.77 3.43 o
1 0 11 4.39 0.00 5.54 o
2 0 11 7.55 7.60 1.69 o
3 0 11 2.61 2.39 1.78 o
4 0 11 0.02 1.99 3.03 o
-4 1 11 0.49 0.61 3.10 o
-3 1 11 5.53 5.54 1.83 o
-2 1 11 10.91 8.69 2.55 o
-1 1 11 39.45 39.20 12.49 o
1 1 11 39.39 36.41 2.45 o
2 1 11 10.93 9.47 4.14 o
3 1 11 5.52 8.80 2.19 o
4 1 11 0.49 0.58 1.81 o
-4 2 11 2.39 2.27 3.22 o
-3 2 11 0.31 0.01 2.95 o
-2 2 11 14.32 13.18 2.05 o
-1 2 11 2.35 2.10 2.94 o
0 2 11 0.49 1.47 2.21 o
1 2 11 2.34 4.45 1.66 o
2 2 11 14.33 20.78 3.59 o
3 2 11 0.30 0.02 2.13 o
4 2 11 2.38 2.32 4.22 o
-3 3 11 1.96 8.58 3.09 o
-2 3 11 5.24 5.34 2.94 o
-1 3 11 22.44 18.73 4.74 o
0 3 11 3.51 3.76 1.75 o
1 3 11 22.51 17.47 5.61 o
2 3 11 5.23 7.21 2.46 o
3 3 11 1.97 5.29 2.65 o
-3 4 11 1.64 0.98 3.19 o
-2 4 11 2.84 5.17 3.24 o
-1 4 11 0.66 3.89 2.64 o
0 4 11 2.23 4.38 2.81 o
1 4 11 0.66 3.09 2.89 o
2 4 11 2.83 5.29 3.26 o
3 4 11 1.64 0.94 2.78 o
0 5 11 4.81 3.13 2.76 o
1 0 12 36.06 37.31 7.63 o
2 0 12 1.11 3.40 1.85 o
3 0 12 6.80 6.68 2.70 o
4 0 12 2.51 3.54 2.18 o
-4 1 12 0.50 0.71 1.88 o
-3 1 12 1.46 1.97 2.55 o
-2 1 12 1.51 3.58 1.77 o
-1 1 12 5.14 5.50 3.89 o
1 1 12 5.15 3.33 1.41 o
2 1 12 1.51 2.73 2.07 o
3 1 12 1.46 1.97 1.89 o
4 1 12 0.50 0.66 2.40 o
-4 2 12 3.33 6.84 2.69 o
-3 2 12 2.14 3.78 1.85 o
-2 2 12 28.59 23.26 3.37 o
-1 2 12 1.87 0.00 5.72 o
1 2 12 1.87 1.00 1.92 o
2 2 12 28.60 22.52 4.06 o
3 2 12 2.14 3.26 2.17 o
4 2 12 3.33 5.58 2.72 o
-3 3 12 2.81 5.17 3.60 o
-2 3 12 3.03 3.06 10.40 o
-1 3 12 0.99 7.82 6.15 o
0 3 12 8.79 4.92 1.92 o
1 3 12 0.98 5.36 2.61 o
2 3 12 3.04 3.03 3.14 o
3 3 12 2.81 4.04 2.83 o
-2 4 12 1.12 4.61 3.37 o
-1 4 12 6.75 7.27 2.94 o
0 4 12 19.99 19.49 7.63 o
1 4 12 6.76 3.34 4.40 o
2 4 12 1.12 3.01 2.34 o
2 0 13 1.36 2.44 1.62 o
3 0 13 0.42 3.46 3.06 o
4 0 13 0.12 0.13 2.55 o
-4 1 13 0.08 0.05 2.04 o
-3 1 13 0.82 0.45 1.94 o
-2 1 13 1.58 1.92 1.68 o
1 1 13 33.89 35.62 3.98 o
2 1 13 1.58 2.33 2.03 o
3 1 13 0.83 0.51 2.17 o
4 1 13 0.09 0.04 2.41 o
-3 2 13 0.10 0.57 2.27 o
-2 2 13 0.76 1.58 2.58 o
-1 2 13 20.20 20.51 9.77 o
1 2 13 20.21 20.76 4.65 o
2 2 13 0.76 2.47 3.90 o
3 2 13 0.10 0.50 3.40 o
-3 3 13 0.10 0.17 3.63 o
-2 3 13 0.50 0.99 4.21 o
-1 3 13 23.48 27.12 11.34 o
0 3 13 10.92 5.06 2.15 o
1 3 13 23.49 23.98 5.91 o
2 3 13 0.50 0.99 4.07 o
3 3 13 0.10 0.21 2.69 o
-2 4 13 0.36 1.38 5.09 o
-1 4 13 0.37 4.33 4.21 o
0 4 13 0.05 1.57 4.51 o
1 4 13 0.37 4.69 3.98 o
2 4 13 0.36 3.36 3.36 o
2 0 14 5.28 11.23 3.59 o
3 0 14 4.22 4.66 2.37 o
4 0 14 0.06 0.28 2.25 o
-3 1 14 0.15 0.12 1.89 o
-2 1 14 2.32 5.54 3.90 o
2 1 14 2.33 2.44 3.67 o
3 1 14 0.15 0.23 1.87 o
-3 2 14 1.51 4.94 2.82 o
-2 2 14 19.40 21.57 6.93 o
1 2 14 6.07 3.80 3.85 o
2 2 14 19.40 15.40 9.90 o
3 2 14 1.51 2.42 3.41 o
-2 3 14 2.78 7.24 4.96 o
-1 3 14 0.39 3.65 5.09 o
1 3 14 0.39 2.23 3.70 o
2 3 14 2.77 7.15 9.00 o
-1 4 14 6.97 5.06 5.20 o
1 4 14 6.98 5.82 4.20 o
2 0 15 0.82 7.41 5.21 o
3 0 15 0.35 3.17 2.29 o
-3 1 15 2.42 5.04 2.47 o
-2 1 15 2.69 5.09 5.43 o
2 1 15 2.69 3.48 2.67 o
3 1 15 2.42 4.62 2.45 o
-3 2 15 0.63 3.59 4.84 o
-2 2 15 0.61 0.30 3.55 o
1 2 15 0.56 5.01 3.17 o
2 2 15 0.61 0.34 3.09 o
3 2 15 0.63 4.38 3.80 o
-2 3 15 2.21 3.97 4.37 o
1 3 15 5.72 5.13 4.70 o
2 3 15 2.21 3.42 5.63 o
2 0 16 0.00 3.99 4.10 o
3 0 16 0.06 4.05 5.10 o
-3 1 16 0.59 0.08 3.73 o
2 1 16 0.01 4.06 3.24 o
3 1 16 0.59 0.09 4.79 o
2 2 16 0.63 4.73 5.74 o
1 3 16 0.55 1.97 4.94 o
2 1 17 0.60 0.00 3.55 o
