#------------------------------------------------------------------------------
#$Date: 2016-03-26 18:13:32 +0200 (Sat, 26 Mar 2016) $
#$Revision: 180417 $
#$URL: svn://www.crystallography.net/cod/cif/7/20/86/7208658.cif $
#------------------------------------------------------------------------------
#
# This file is available in the Crystallography Open Database (COD),
# http://www.crystallography.net/
#
# All data on this site have been placed in the public domain by the
# contributors.
#
data_7208658
loop_
_publ_author_name
'Podsiad\/lo, Marcin'
'Patyk, Ewa'
'Katrusiak, Andrzej'
_publ_section_title
;
 Chiral aggregation hierarchy in high-pressure resolved 2-butanol and
 2,3-butanediol
;
_journal_issue                   20
_journal_name_full               CrystEngComm
_journal_page_first              6419
_journal_paper_doi               10.1039/c2ce25372k
_journal_volume                  14
_journal_year                    2012
_chemical_formula_moiety         'C4 H10 O2'
_chemical_formula_sum            'C4 H10 O2'
_chemical_formula_weight         90.12
_chemical_melting_point          298
_chemical_name_common            2,3-butanediol
_chemical_name_systematic
;
2,3-butanediol
;
_space_group_IT_number           19
_symmetry_cell_setting           orthorhombic
_symmetry_space_group_name_Hall  'P 2ac 2ab'
_symmetry_space_group_name_H-M   'P 21 21 21'
_atom_sites_solution_hydrogens   geom
_atom_sites_solution_primary     direct
_atom_sites_solution_secondary   difmap
_audit_creation_method           SHELXL-97
_cell_angle_alpha                90.00
_cell_angle_beta                 90.00
_cell_angle_gamma                90.00
_cell_formula_units_Z            4
_cell_length_a                   5.0482(10)
_cell_length_b                   9.4220(19)
_cell_length_c                   10.250(2)
_cell_measurement_reflns_used    3678
_cell_measurement_temperature    295(2)
_cell_measurement_theta_max      24.98
_cell_measurement_theta_min      2.94
_cell_volume                     487.53(17)
_computing_cell_refinement       'CrysAlisRED (Oxford Diffraction, 2004)'
_computing_data_collection       'CrysAlisCCD (Oxford Diffraction, 2004)'
_computing_data_reduction
'CrysAlisRED (Oxford Diffraction, 2004); REDSHABS (Katrusiak, A. 2003)'
_computing_molecular_graphics    'SHELXTL (Sheldrick, 1990)'
_computing_publication_material  'SHELXL--97 (Sheldrick, 1997)'
_computing_structure_refinement  'SHELXL--97 (Sheldrick, 1997)'
_computing_structure_solution    'SHELXS--97 (Sheldrick, 1997)'
_diffrn_ambient_environment      'diamond-anvil cell'
_diffrn_ambient_pressure         430000
_diffrn_ambient_temperature      295(2)
_diffrn_measured_fraction_theta_full 0.552
_diffrn_measured_fraction_theta_max 0.552
_diffrn_measurement_device_type  'KM-4 CCD'
_diffrn_measurement_method       '\f- and \w-scans'
_diffrn_radiation_monochromator  graphite
_diffrn_radiation_source         'fine-focus sealed tube'
_diffrn_radiation_type           MoK\a
_diffrn_radiation_wavelength     0.71073
_diffrn_reflns_av_R_equivalents  0.0642
_diffrn_reflns_av_sigmaI/netI    0.0304
_diffrn_reflns_limit_h_max       6
_diffrn_reflns_limit_h_min       -6
_diffrn_reflns_limit_k_max       6
_diffrn_reflns_limit_k_min       -6
_diffrn_reflns_limit_l_max       12
_diffrn_reflns_limit_l_min       -12
_diffrn_reflns_number            3678
_diffrn_reflns_theta_full        24.98
_diffrn_reflns_theta_max         24.98
_diffrn_reflns_theta_min         2.94
_diffrn_standards_decay_%        0
_diffrn_standards_interval_count 0
_diffrn_standards_number         0
_exptl_absorpt_coefficient_mu    0.096
_exptl_absorpt_correction_T_max  0.87
_exptl_absorpt_correction_T_min  0.34
_exptl_absorpt_correction_type   numerical
_exptl_absorpt_process_details
;
Correction for absorption of the diamond-anvil cell and the sample
were made using program REDSHABS (Katrusiak, A. (2003) REDSHABS. Adam
Mickiewicz University Pozna\'n; Katrusiak, A. (2004) Z. Kristallogr.
219, 461-467).
;
_exptl_crystal_colour            colourless
_exptl_crystal_density_diffrn    1.228
_exptl_crystal_density_method    'not measured'
_exptl_crystal_description       cylinder
_exptl_crystal_F_000             200
_exptl_crystal_size_max          0.42
_exptl_crystal_size_mid          0.42
_exptl_crystal_size_min          0.22
_refine_diff_density_max         0.156
_refine_diff_density_min         -0.157
_refine_diff_density_rms         0.035
_refine_ls_abs_structure_details 'Flack H D (1983), Acta Cryst. A39, 876-881'
_refine_ls_abs_structure_Flack   1(6)
_refine_ls_extinction_method     none
_refine_ls_goodness_of_fit_ref   1.126
_refine_ls_hydrogen_treatment    constr
_refine_ls_matrix_type           full
_refine_ls_number_parameters     55
_refine_ls_number_reflns         467
_refine_ls_number_restraints     24
_refine_ls_restrained_S_all      1.253
_refine_ls_R_factor_all          0.0619
_refine_ls_R_factor_gt           0.0489
_refine_ls_shift/su_max          0.000
_refine_ls_shift/su_mean         0.000
_refine_ls_structure_factor_coef Fsqd
_refine_ls_weighting_details
'calc w=1/[\s^2^(Fo^2^)+(0.0603P)^2^+0.1760P] where P=(Fo^2^+2Fc^2^)/3'
_refine_ls_weighting_scheme      calc
_refine_ls_wR_factor_gt          0.1242
_refine_ls_wR_factor_ref         0.1333
_reflns_number_gt                369
_reflns_number_total             467
_reflns_threshold_expression     >2sigma(I)
_cod_data_source_file            c2ce25372k.txt
_cod_data_source_block           23butdiol_0.43GPa
_cod_original_cell_volume        487.56(17)
_cod_database_code               7208658
loop_
_symmetry_equiv_pos_as_xyz
'x, y, z'
'-x+1/2, -y, z+1/2'
'-x, y+1/2, -z+1/2'
'x+1/2, -y+1/2, -z'
loop_
_atom_site_label
_atom_site_type_symbol
_atom_site_fract_x
_atom_site_fract_y
_atom_site_fract_z
_atom_site_U_iso_or_equiv
_atom_site_adp_type
_atom_site_occupancy
_atom_site_symmetry_multiplicity
_atom_site_calc_flag
_atom_site_refinement_flags
O1 O 0.3033(7) -0.0537(8) 0.2016(3) 0.073(3) Uani 1 1 d .
H1 H 0.1592 -0.0938 0.1991 0.109 Uiso 1 1 calc R
O2 O 0.1929(7) 0.3132(8) 0.2953(3) 0.058(3) Uani 1 1 d .
H2 H 0.3432 0.3463 0.2972 0.070 Uiso 1 1 calc R
C1 C 0.0637(9) 0.1267(10) 0.0789(4) 0.0559(19) Uani 1 1 d U
H11 H 0.0849 0.0667 0.0040 0.084 Uiso 1 1 calc R
H12 H 0.0856 0.2241 0.0536 0.084 Uiso 1 1 calc R
H13 H -0.1101 0.1135 0.1149 0.084 Uiso 1 1 calc R
C2 C 0.2691(9) 0.0888(11) 0.1800(4) 0.0388(16) Uani 1 1 d U
H21 H 0.4388 0.1252 0.1479 0.047 Uiso 1 1 calc R
C3 C 0.2038(10) 0.1743(11) 0.3141(5) 0.045(2) Uani 1 1 d U
H31 H 0.3453 0.1545 0.3769 0.055 Uiso 1 1 calc R
C4 C -0.0560(9) 0.1195(9) 0.3704(4) 0.0561(19) Uani 1 1 d U
H41 H -0.1089 0.1785 0.4421 0.084 Uiso 1 1 calc R
H42 H -0.0324 0.0238 0.4004 0.084 Uiso 1 1 calc R
H43 H -0.1904 0.1215 0.3041 0.084 Uiso 1 1 calc R
loop_
_atom_site_aniso_label
_atom_site_aniso_U_11
_atom_site_aniso_U_22
_atom_site_aniso_U_33
_atom_site_aniso_U_23
_atom_site_aniso_U_13
_atom_site_aniso_U_12
O1 0.0368(17) 0.111(10) 0.071(2) 0.005(3) -0.0063(17) -0.003(3)
O2 0.0296(17) 0.065(11) 0.080(3) 0.000(3) -0.0065(18) -0.002(3)
C1 0.049(2) 0.079(6) 0.039(2) -0.002(2) -0.0009(19) -0.009(3)
C2 0.031(2) 0.043(4) 0.0423(18) 0.000(2) 0.0094(15) -0.011(3)
C3 0.027(2) 0.067(6) 0.042(2) 0.001(3) -0.0061(18) -0.002(3)
C4 0.042(2) 0.079(6) 0.047(2) -0.006(3) 0.0115(17) -0.002(3)
loop_
_atom_type_symbol
_atom_type_description
_atom_type_scat_dispersion_real
_atom_type_scat_dispersion_imag
_atom_type_scat_source
C C 0.0033 0.0016 'International Tables Vol C Tables 4.2.6.8 and 6.1.1.4'
H H 0.0000 0.0000 'International Tables Vol C Tables 4.2.6.8 and 6.1.1.4'
O O 0.0106 0.0060 'International Tables Vol C Tables 4.2.6.8 and 6.1.1.4'
loop_
_geom_angle_atom_site_label_1
_geom_angle_atom_site_label_2
_geom_angle_atom_site_label_3
_geom_angle
C2 O1 H1 109.5
C3 O2 H2 109.5
C2 C1 H11 109.5
C2 C1 H12 109.5
H11 C1 H12 109.5
C2 C1 H13 109.5
H11 C1 H13 109.5
H12 C1 H13 109.5
O1 C2 C1 115.4(6)
O1 C2 C3 112.0(5)
C1 C2 C3 108.9(6)
O1 C2 H21 106.7
C1 C2 H21 106.7
C3 C2 H21 106.7
O2 C3 C4 110.8(6)
O2 C3 C2 112.0(5)
C4 C3 C2 109.1(6)
O2 C3 H31 108.3
C4 C3 H31 108.3
C2 C3 H31 108.3
C3 C4 H41 109.5
C3 C4 H42 109.5
H41 C4 H42 109.5
C3 C4 H43 109.5
H41 C4 H43 109.5
H42 C4 H43 109.5
loop_
_geom_bond_atom_site_label_1
_geom_bond_atom_site_label_2
_geom_bond_distance
O1 C2 1.372(10)
O1 H1 0.8200
O2 C3 1.325(9)
O2 H2 0.8200
C1 C2 1.509(7)
C1 H11 0.9600
C1 H12 0.9600
C1 H13 0.9600
C2 C3 1.626(9)
C2 H21 0.9800
C3 C4 1.523(8)
C3 H31 0.9800
C4 H41 0.9600
C4 H42 0.9600
C4 H43 0.9600
loop_
_geom_torsion_atom_site_label_1
_geom_torsion_atom_site_label_2
_geom_torsion_atom_site_label_3
_geom_torsion_atom_site_label_4
_geom_torsion
O1 C2 C3 O2 174.6(5)
C1 C2 C3 O2 -56.5(6)
O1 C2 C3 C4 -62.4(6)
C1 C2 C3 C4 66.5(9)
loop_
_refln_index_h
_refln_index_k
_refln_index_l
_refln_F_squared_calc
_refln_F_squared_meas
_refln_F_squared_sigma
_refln_observed_status
2 0 0 1220.37 1270.38 2.12 o
4 0 0 87.45 96.35 1.64 o
6 0 0 0.26 0.59 1.53 o
1 1 0 1482.78 1564.73 21.72 o
2 1 0 246.22 228.37 2.66 o
3 1 0 145.97 166.25 3.03 o
4 1 0 166.30 167.74 1.47 o
5 1 0 5.80 5.03 1.13 o
2 2 0 1.28 0.34 0.53 o
3 2 0 16.37 14.67 0.78 o
4 2 0 2.08 1.58 0.59 o
5 2 0 1.28 2.92 1.40 o
3 3 0 9.59 7.77 1.92 o
4 3 0 0.01 2.38 1.82 o
5 3 0 4.38 4.30 4.64 o
1 0 1 741.25 716.16 3.84 o
2 0 1 45.59 37.11 0.37 o
3 0 1 0.30 0.91 0.25 o
4 0 1 203.50 210.82 3.38 o
5 0 1 1.69 3.72 1.10 o
-5 1 1 7.60 9.23 1.24 o
-4 1 1 62.92 59.85 1.39 o
-3 1 1 139.94 144.70 2.06 o
-2 1 1 388.17 430.07 5.90 o
-1 1 1 1319.36 1352.55 23.87 o
0 1 1 91.15 83.22 1.81 o
1 1 1 1319.44 1329.79 22.06 o
2 1 1 388.34 436.55 6.67 o
3 1 1 140.01 146.68 2.02 o
4 1 1 62.92 64.29 1.37 o
5 1 1 7.62 8.82 1.53 o
-5 2 1 108.53 116.83 3.30 o
-4 2 1 16.16 21.51 1.35 o
-3 2 1 382.58 415.22 3.18 o
-2 2 1 121.49 122.12 1.71 o
2 2 1 121.52 122.62 3.34 o
3 2 1 383.04 407.36 5.20 o
4 2 1 16.15 20.42 1.14 o
5 2 1 108.31 108.55 4.74 o
-5 3 1 5.55 3.87 1.32 o
-4 3 1 2.78 2.37 1.01 o
-3 3 1 2.16 2.23 1.54 o
3 3 1 2.20 0.85 0.82 o
4 3 1 2.80 2.76 2.02 o
5 3 1 5.57 5.59 2.59 o
0 0 2 3796.94 3656.76 70.56 o
1 0 2 211.05 229.93 0.80 o
2 0 2 1989.13 1964.16 27.64 o
3 0 2 92.63 95.22 1.72 o
4 0 2 47.16 50.42 1.27 o
5 0 2 58.29 67.21 1.68 o
-5 1 2 24.05 22.68 1.46 o
-4 1 2 133.69 128.71 1.89 o
-3 1 2 157.84 146.84 2.33 o
-2 1 2 308.96 293.52 4.36 o
-1 1 2 433.21 423.30 7.46 o
0 1 2 556.95 563.91 2.77 o
1 1 2 433.26 414.23 5.36 o
2 1 2 308.63 292.29 6.38 o
3 1 2 157.76 146.94 2.38 o
4 1 2 133.66 129.76 1.69 o
5 1 2 24.05 23.54 1.52 o
-5 2 2 0.38 0.32 1.15 o
-4 2 2 31.93 36.17 1.76 o
-3 2 2 64.13 61.81 2.20 o
-2 2 2 200.94 219.85 3.92 o
-1 2 2 817.42 787.79 2.81 o
1 2 2 817.03 784.10 3.71 o
2 2 2 200.92 214.26 3.00 o
3 2 2 64.21 59.01 6.20 o
4 2 2 31.96 36.20 2.66 o
5 2 2 0.38 0.35 1.00 o
-5 3 2 1.48 0.86 1.56 o
-4 3 2 1.74 1.09 0.91 o
-3 3 2 32.68 35.32 2.91 o
-2 3 2 25.74 16.80 2.78 o
3 3 2 32.57 34.45 8.40 o
4 3 2 1.73 1.18 3.48 o
5 3 2 1.48 0.83 1.66 o
-5 4 2 28.27 23.73 3.08 o
-4 4 2 1.85 1.32 1.26 o
1 0 3 609.58 624.43 7.79 o
2 0 3 366.78 351.34 5.95 o
3 0 3 43.38 48.52 1.25 o
4 0 3 331.91 326.73 4.97 o
5 0 3 4.81 4.24 0.84 o
-5 1 3 17.57 20.25 1.39 o
-4 1 3 20.76 18.70 1.32 o
-3 1 3 70.75 80.11 1.38 o
-2 1 3 151.47 147.10 2.77 o
-1 1 3 375.89 367.68 3.10 o
0 1 3 1539.11 1482.50 13.53 o
1 1 3 375.61 383.38 8.24 o
2 1 3 151.55 149.55 3.89 o
3 1 3 70.79 78.50 1.32 o
4 1 3 20.73 18.66 1.16 o
5 1 3 17.57 20.17 1.37 o
-5 2 3 34.90 36.96 2.44 o
-4 2 3 0.90 0.19 0.77 o
-3 2 3 66.20 67.52 4.57 o
-2 2 3 39.17 38.96 0.78 o
-1 2 3 62.86 65.48 1.11 o
0 2 3 1510.91 1585.93 29.77 o
1 2 3 62.82 65.75 1.79 o
2 2 3 39.13 35.09 1.17 o
3 2 3 66.21 61.63 5.75 o
4 2 3 0.89 0.20 0.72 o
5 2 3 34.80 34.97 1.88 o
-5 3 3 2.29 3.18 1.54 o
-4 3 3 11.75 12.59 2.21 o
-3 3 3 28.72 32.04 1.11 o
-2 3 3 58.58 46.17 1.28 o
-1 3 3 92.31 95.53 2.93 o
0 3 3 3.49 1.96 0.68 o
1 3 3 92.12 95.69 1.87 o
2 3 3 58.68 48.01 1.51 o
3 3 3 28.73 31.98 1.83 o
4 3 3 11.78 12.17 2.58 o
5 3 3 2.30 4.57 3.88 o
-5 4 3 11.19 7.25 1.62 o
-4 4 3 7.16 1.24 1.85 o
-3 4 3 15.21 9.48 1.18 o
0 0 4 91.13 85.15 1.99 o
1 0 4 4.92 4.47 0.28 o
2 0 4 248.12 257.71 4.16 o
3 0 4 44.53 41.95 1.28 o
4 0 4 0.06 0.02 0.62 o
-5 1 4 25.92 24.36 1.84 o
-4 1 4 14.98 16.27 1.09 o
-3 1 4 70.27 70.06 1.46 o
-2 1 4 368.78 395.21 5.94 o
-1 1 4 225.72 226.70 3.71 o
0 1 4 411.64 394.25 1.55 o
1 1 4 225.80 231.88 8.76 o
2 1 4 368.91 404.94 8.97 o
3 1 4 70.36 72.08 1.77 o
4 1 4 14.93 16.48 1.08 o
5 1 4 25.91 29.60 1.81 o
-5 2 4 0.11 0.23 1.23 o
-4 2 4 17.60 17.04 2.13 o
-3 2 4 87.63 75.44 6.48 o
-2 2 4 2.45 2.81 0.48 o
-1 2 4 997.86 962.23 7.77 o
0 2 4 3.42 2.45 0.45 o
1 2 4 997.48 965.32 15.76 o
2 2 4 2.45 2.28 0.46 o
3 2 4 87.72 80.36 4.01 o
4 2 4 17.58 18.17 2.52 o
5 2 4 0.11 0.21 1.24 o
-5 3 4 8.92 6.30 1.69 o
-4 3 4 3.53 3.53 1.61 o
-3 3 4 39.65 33.74 1.67 o
-2 3 4 13.38 11.80 0.83 o
-1 3 4 64.61 67.00 5.20 o
0 3 4 75.61 59.99 1.47 o
1 3 4 64.75 64.99 3.04 o
2 3 4 13.35 11.45 0.95 o
3 3 4 39.68 36.19 1.72 o
4 3 4 3.52 3.17 1.05 o
5 3 4 8.90 9.89 2.39 o
-5 4 4 5.00 1.79 1.84 o
-4 4 4 1.04 2.62 2.22 o
-3 4 4 23.98 28.20 1.14 o
-2 4 4 18.47 13.98 0.73 o
-1 4 4 0.98 0.86 0.86 o
1 4 4 0.98 0.08 0.79 o
2 4 4 18.49 14.05 1.11 o
3 4 4 24.05 25.34 2.48 o
4 4 4 1.03 0.87 1.36 o
1 0 5 1.06 2.16 0.60 o
2 0 5 494.87 503.35 6.13 o
4 0 5 97.28 91.66 2.72 o
5 0 5 0.14 0.01 1.11 o
-5 1 5 14.97 16.18 2.13 o
-4 1 5 15.67 20.17 1.42 o
-3 1 5 92.44 92.93 1.51 o
-2 1 5 146.66 140.42 2.36 o
-1 1 5 19.41 27.01 5.04 o
0 1 5 536.52 550.06 5.88 o
1 1 5 19.37 29.31 4.37 o
2 1 5 146.84 137.30 2.83 o
3 1 5 92.36 93.36 1.67 o
4 1 5 15.65 20.08 1.23 o
5 1 5 14.98 15.70 1.93 o
-5 2 5 4.02 3.66 1.47 o
-4 2 5 10.25 13.80 1.20 o
-3 2 5 36.13 43.09 1.69 o
-2 2 5 29.20 26.13 0.92 o
-1 2 5 1.32 0.76 0.82 o
0 2 5 140.29 139.45 3.51 o
1 2 5 1.32 2.47 0.57 o
2 2 5 29.18 26.93 0.93 o
3 2 5 36.12 40.60 2.02 o
4 2 5 10.24 13.78 1.15 o
5 2 5 4.02 5.63 1.89 o
-5 3 5 3.03 3.14 1.44 o
-4 3 5 30.89 37.20 2.63 o
-3 3 5 55.57 56.21 3.69 o
-2 3 5 7.71 6.09 0.78 o
-1 3 5 4.68 5.10 0.44 o
0 3 5 1.54 0.15 0.35 o
1 3 5 4.64 4.82 0.47 o
2 3 5 7.70 7.02 0.88 o
3 3 5 55.36 56.93 4.20 o
4 3 5 30.91 29.62 4.12 o
5 3 5 3.03 3.20 1.47 o
-5 4 5 4.57 2.28 2.08 o
-4 4 5 6.26 3.19 4.12 o
-3 4 5 0.24 0.02 0.70 o
-2 4 5 14.59 12.26 1.42 o
-1 4 5 31.32 46.79 8.05 o
0 4 5 0.79 0.65 0.73 o
1 4 5 31.35 30.32 12.30 o
2 4 5 14.59 11.92 1.58 o
3 4 5 0.23 0.02 1.19 o
4 4 5 6.25 3.55 2.12 o
5 4 5 4.56 4.49 4.06 o
-4 5 5 0.81 1.15 1.04 o
-3 5 5 14.49 15.90 1.20 o
0 0 6 109.47 117.01 2.04 o
1 0 6 0.56 2.24 0.41 o
2 0 6 199.42 240.40 11.59 o
3 0 6 6.85 7.36 0.93 o
4 0 6 7.34 5.90 1.63 o
5 0 6 1.53 2.67 1.52 o
-5 1 6 16.88 15.90 3.20 o
-4 1 6 29.53 31.49 1.79 o
-3 1 6 106.56 113.98 1.76 o
-2 1 6 23.15 18.70 0.92 o
-1 1 6 54.20 51.67 3.36 o
0 1 6 399.42 419.10 11.29 o
1 1 6 54.25 52.31 2.51 o
2 1 6 23.19 19.33 1.84 o
3 1 6 106.63 116.17 2.01 o
4 1 6 29.50 31.81 1.53 o
5 1 6 16.89 15.16 2.51 o
-5 2 6 1.34 2.59 1.69 o
-4 2 6 14.68 12.57 1.53 o
-3 2 6 49.22 48.47 1.88 o
-2 2 6 1.04 1.25 0.50 o
-1 2 6 229.51 252.61 5.31 o
0 2 6 0.91 1.21 0.48 o
1 2 6 229.74 254.70 7.61 o
2 2 6 1.03 1.94 0.62 o
3 2 6 49.16 49.70 2.24 o
4 2 6 14.66 14.13 1.81 o
5 2 6 1.34 1.96 1.52 o
-4 3 6 1.44 2.96 1.07 o
-3 3 6 25.31 19.36 1.59 o
-2 3 6 17.95 18.27 1.26 o
-1 3 6 39.84 46.88 1.39 o
0 3 6 13.52 15.08 0.81 o
1 3 6 39.88 42.79 2.83 o
2 3 6 17.94 18.44 1.01 o
3 3 6 25.42 23.00 1.71 o
4 3 6 1.44 2.92 1.17 o
-4 4 6 2.58 4.07 1.28 o
-3 4 6 6.86 7.25 1.85 o
-2 4 6 28.19 26.48 1.78 o
-1 4 6 1.92 2.15 0.71 o
0 4 6 1.11 1.51 0.66 o
1 4 6 1.92 2.07 0.99 o
2 4 6 28.17 27.19 2.02 o
3 4 6 6.85 7.98 1.16 o
4 4 6 2.57 1.85 2.60 o
-4 5 6 11.77 6.94 2.21 o
-3 5 6 33.50 18.74 0.97 o
-2 5 6 3.00 2.61 0.59 o
-1 5 6 1.82 5.65 1.84 o
0 5 6 6.74 1.59 2.38 o
1 5 6 1.83 0.38 1.14 o
2 5 6 2.99 2.62 0.88 o
1 0 7 15.61 14.76 1.00 o
2 0 7 32.47 32.29 0.99 o
3 0 7 11.87 13.79 1.33 o
4 0 7 45.96 50.31 2.16 o
-4 1 7 7.22 6.98 1.66 o
-3 1 7 31.42 30.93 3.48 o
-2 1 7 97.29 105.06 2.55 o
-1 1 7 88.96 93.93 2.62 o
0 1 7 8.67 3.77 0.80 o
1 1 7 88.92 93.69 3.13 o
2 1 7 97.20 96.12 3.58 o
3 1 7 31.40 34.72 1.77 o
4 1 7 7.22 8.19 1.34 o
-4 2 7 7.92 6.71 1.34 o
-3 2 7 22.54 23.87 1.68 o
-2 2 7 58.39 54.45 2.36 o
-1 2 7 14.16 11.70 1.00 o
0 2 7 0.00 0.31 0.53 o
1 2 7 14.16 11.51 1.27 o
2 2 7 58.39 57.74 3.03 o
3 2 7 22.53 22.09 3.19 o
4 2 7 7.92 5.37 1.25 o
-4 3 7 4.42 3.22 1.21 o
-3 3 7 4.68 4.89 1.37 o
-2 3 7 19.72 22.97 1.74 o
-1 3 7 49.88 54.13 1.74 o
0 3 7 10.25 8.81 1.10 o
1 3 7 49.78 56.27 1.76 o
2 3 7 19.75 21.36 1.47 o
3 3 7 4.63 3.12 1.41 o
4 3 7 4.42 3.96 1.43 o
-4 4 7 0.70 1.33 1.20 o
-3 4 7 5.36 5.17 1.69 o
-2 4 7 0.55 0.28 1.20 o
-1 4 7 44.92 44.51 1.81 o
0 4 7 1.59 3.16 0.77 o
1 4 7 44.83 44.45 1.72 o
2 4 7 0.55 0.37 0.86 o
3 4 7 5.39 5.20 1.92 o
4 4 7 0.70 3.46 2.09 o
-4 5 7 3.89 4.21 2.80 o
-3 5 7 8.95 5.35 1.17 o
-2 5 7 5.40 2.49 0.77 o
-1 5 7 13.52 7.01 0.64 o
0 5 7 16.26 11.45 0.89 o
1 5 7 13.48 7.05 1.13 o
2 5 7 5.40 2.39 0.65 o
3 5 7 8.95 4.88 1.35 o
4 5 7 3.89 3.60 2.93 o
0 0 8 233.99 279.39 9.87 o
1 0 8 1.27 1.86 0.57 o
2 0 8 151.12 163.26 3.56 o
3 0 8 5.48 4.23 1.45 o
4 0 8 7.88 7.83 1.62 o
-4 1 8 1.69 2.93 1.23 o
-3 1 8 3.20 3.54 0.84 o
-2 1 8 44.33 48.30 1.83 o
-1 1 8 89.98 96.00 3.18 o
0 1 8 36.62 44.05 1.76 o
1 1 8 90.05 96.00 3.39 o
2 1 8 44.23 48.45 2.01 o
3 1 8 3.20 3.11 1.20 o
4 1 8 1.67 2.70 1.18 o
-4 2 8 1.17 0.95 1.57 o
-3 2 8 5.04 4.58 1.53 o
-2 2 8 10.35 10.76 1.54 o
-1 2 8 12.68 12.59 1.66 o
0 2 8 0.84 1.18 0.71 o
1 2 8 12.68 10.24 1.62 o
2 2 8 10.35 9.17 1.21 o
3 2 8 5.02 4.75 1.45 o
4 2 8 1.17 0.76 1.03 o
-4 3 8 9.69 8.85 1.54 o
-3 3 8 2.56 1.87 1.55 o
-2 3 8 4.86 5.46 1.38 o
-1 3 8 12.72 12.27 1.42 o
0 3 8 18.45 16.13 2.04 o
1 3 8 12.78 9.26 1.52 o
2 3 8 4.88 6.57 1.65 o
3 3 8 2.56 1.87 1.45 o
4 3 8 9.69 9.05 1.53 o
-3 4 8 2.77 1.95 1.50 o
-2 4 8 10.89 9.08 2.25 o
-1 4 8 1.74 4.57 1.38 o
0 4 8 4.25 5.60 1.09 o
1 4 8 1.75 1.80 0.82 o
2 4 8 10.88 9.46 1.61 o
3 4 8 2.80 4.16 2.56 o
-3 5 8 2.89 3.52 1.46 o
-2 5 8 16.64 14.31 1.65 o
-1 5 8 16.44 13.55 1.54 o
0 5 8 1.91 3.96 0.98 o
1 5 8 16.48 11.79 3.08 o
2 5 8 16.67 14.48 2.38 o
3 5 8 2.88 3.39 2.09 o
1 0 9 1.61 1.53 0.58 o
2 0 9 0.02 0.32 0.79 o
3 0 9 0.21 1.01 1.31 o
-4 1 9 23.05 26.39 3.74 o
-3 1 9 2.58 3.31 1.76 o
-2 1 9 0.79 4.01 1.89 o
-1 1 9 47.73 53.53 1.87 o
0 1 9 15.84 14.13 1.31 o
1 1 9 47.73 55.54 2.10 o
2 1 9 0.77 4.33 1.69 o
3 1 9 2.57 3.24 1.50 o
4 1 9 23.04 27.75 2.41 o
-3 2 9 15.60 14.27 2.23 o
-2 2 9 1.74 3.27 1.23 o
-1 2 9 5.62 4.57 1.29 o
0 2 9 2.09 4.08 0.83 o
1 2 9 5.60 4.47 1.44 o
2 2 9 1.74 3.45 1.35 o
3 2 9 15.57 15.44 2.69 o
-3 3 9 11.85 9.54 1.88 o
-2 3 9 12.76 11.71 1.78 o
-1 3 9 0.35 0.32 1.59 o
0 3 9 21.81 28.03 3.09 o
1 3 9 0.35 0.35 0.85 o
2 3 9 12.77 8.99 2.20 o
3 3 9 11.85 8.94 1.84 o
-3 4 9 9.73 10.94 1.85 o
-2 4 9 0.34 0.32 1.35 o
-1 4 9 20.87 24.54 3.07 o
0 4 9 1.04 1.25 1.71 o
1 4 9 20.88 19.21 2.01 o
2 4 9 0.34 0.21 1.45 o
3 4 9 9.73 10.88 1.94 o
-3 5 9 0.38 3.49 2.19 o
-2 5 9 5.97 5.48 1.97 o
-1 5 9 16.33 13.81 2.42 o
0 5 9 0.47 2.95 2.16 o
1 5 9 16.34 13.65 3.05 o
2 5 9 5.96 2.41 2.58 o
3 5 9 0.38 2.09 3.35 o
-2 6 9 1.15 1.21 1.84 o
-1 6 9 3.10 1.35 1.31 o
0 6 9 3.89 1.71 1.16 o
1 6 9 3.09 1.40 2.44 o
0 0 10 58.95 50.14 8.15 o
1 0 10 2.32 1.83 0.85 o
2 0 10 26.20 17.76 8.67 o
3 0 10 0.70 5.86 3.81 o
-3 1 10 7.93 6.93 1.82 o
-2 1 10 9.82 11.52 1.98 o
-1 1 10 19.99 28.82 2.54 o
0 1 10 25.06 26.57 2.70 o
1 1 10 19.96 29.02 2.06 o
2 1 10 9.83 13.37 2.44 o
3 1 10 7.94 9.25 2.32 o
-3 2 10 1.29 2.60 1.77 o
-2 2 10 1.20 2.17 1.30 o
-1 2 10 2.81 3.36 1.19 o
0 2 10 0.01 0.10 2.58 o
1 2 10 2.81 2.63 1.21 o
2 2 10 1.20 3.41 1.98 o
3 2 10 1.29 2.32 1.56 o
-3 3 10 2.48 1.91 1.52 o
-2 3 10 12.61 14.75 2.19 o
-1 3 10 9.11 8.43 1.50 o
0 3 10 1.80 1.68 1.34 o
1 3 10 9.06 11.17 1.46 o
2 3 10 12.60 16.41 2.30 o
3 3 10 2.49 4.13 1.81 o
-2 4 10 0.66 0.60 1.46 o
-1 4 10 2.56 2.82 1.14 o
0 4 10 0.53 2.21 1.27 o
1 4 10 2.57 3.32 2.08 o
2 4 10 0.65 0.65 1.81 o
-2 5 10 2.26 1.59 1.46 o
-1 5 10 5.37 7.96 2.31 o
0 5 10 38.21 37.56 3.27 o
1 5 10 5.35 6.39 2.30 o
2 5 10 2.26 2.14 2.64 o
-1 6 10 6.87 1.61 1.84 o
0 6 10 0.37 1.51 1.65 o
1 6 10 6.87 2.93 2.18 o
-2 1 11 9.08 8.71 2.27 o
-1 1 11 3.03 5.69 1.62 o
0 1 11 2.67 1.52 1.39 o
1 1 11 3.04 6.33 1.60 o
2 1 11 9.10 9.86 2.01 o
-2 2 11 0.63 0.46 1.68 o
-1 2 11 0.21 1.99 1.45 o
0 2 11 6.22 4.92 1.62 o
1 2 11 0.21 2.09 1.21 o
2 2 11 0.62 0.38 1.62 o
-2 3 11 1.36 2.45 1.61 o
-1 3 11 7.76 7.30 1.66 o
0 3 11 20.70 17.52 2.95 o
1 3 11 7.77 7.30 1.69 o
2 3 11 1.37 5.26 2.31 o
-1 4 11 9.09 6.21 1.82 o
1 4 11 9.09 6.21 1.98 o
0 1 12 1.01 0.62 1.26 o
