#------------------------------------------------------------------------------
#$Date: 2016-03-26 18:13:32 +0200 (Sat, 26 Mar 2016) $
#$Revision: 180417 $
#$URL: svn://www.crystallography.net/cod/cif/7/20/86/7208661.cif $
#------------------------------------------------------------------------------
#
# This file is available in the Crystallography Open Database (COD),
# http://www.crystallography.net/
#
# All data on this site have been placed in the public domain by the
# contributors.
#
data_7208661
loop_
_publ_author_name
'Podsiad\/lo, Marcin'
'Patyk, Ewa'
'Katrusiak, Andrzej'
_publ_section_title
;
 Chiral aggregation hierarchy in high-pressure resolved 2-butanol and
 2,3-butanediol
;
_journal_issue                   20
_journal_name_full               CrystEngComm
_journal_page_first              6419
_journal_paper_doi               10.1039/c2ce25372k
_journal_volume                  14
_journal_year                    2012
_chemical_formula_moiety         'C4 H10 O2'
_chemical_formula_sum            'C4 H10 O2'
_chemical_formula_weight         90.12
_chemical_melting_point          298
_chemical_name_common            2,3-butanediol
_chemical_name_systematic
;
2,3-butanediol
;
_space_group_IT_number           19
_symmetry_cell_setting           orthorhombic
_symmetry_space_group_name_Hall  'P 2ac 2ab'
_symmetry_space_group_name_H-M   'P 21 21 21'
_atom_sites_solution_hydrogens   geom
_atom_sites_solution_primary     direct
_atom_sites_solution_secondary   difmap
_audit_creation_method           SHELXL-97
_cell_angle_alpha                90.00
_cell_angle_beta                 90.00
_cell_angle_gamma                90.00
_cell_formula_units_Z            4
_cell_length_a                   4.9467(10)
_cell_length_b                   9.3791(19)
_cell_length_c                   9.834(2)
_cell_measurement_reflns_used    2301
_cell_measurement_temperature    295(2)
_cell_measurement_theta_max      28.12
_cell_measurement_theta_min      4.35
_cell_volume                     456.25(16)
_computing_cell_refinement       'CrysAlisRED (Oxford Diffraction, 2004)'
_computing_data_collection       'CrysAlisCCD (Oxford Diffraction, 2004)'
_computing_data_reduction
'CrysAlisRED (Oxford Diffraction, 2004); REDSHABS (Katrusiak, A. 2003)'
_computing_molecular_graphics    'SHELXTL (Sheldrick, 1990)'
_computing_publication_material  'SHELXL--97 (Sheldrick, 1997)'
_computing_structure_refinement  'SHELXL--97 (Sheldrick, 1997)'
_computing_structure_solution    'SHELXS--97 (Sheldrick, 1997)'
_diffrn_ambient_environment      'diamond-anvil cell'
_diffrn_ambient_pressure         970000
_diffrn_ambient_temperature      295(2)
_diffrn_measured_fraction_theta_full 0.265
_diffrn_measured_fraction_theta_max 0.265
_diffrn_measurement_device_type  'KM-4 CCD'
_diffrn_measurement_method       '\f- and \w-scans'
_diffrn_radiation_monochromator  graphite
_diffrn_radiation_source         'fine-focus sealed tube'
_diffrn_radiation_type           MoK\a
_diffrn_radiation_wavelength     0.71073
_diffrn_reflns_av_R_equivalents  0.0413
_diffrn_reflns_av_sigmaI/netI    0.0197
_diffrn_reflns_limit_h_max       6
_diffrn_reflns_limit_h_min       -6
_diffrn_reflns_limit_k_max       12
_diffrn_reflns_limit_k_min       -11
_diffrn_reflns_limit_l_max       3
_diffrn_reflns_limit_l_min       -3
_diffrn_reflns_number            1954
_diffrn_reflns_theta_full        28.12
_diffrn_reflns_theta_max         28.12
_diffrn_reflns_theta_min         4.35
_diffrn_standards_decay_%        0
_diffrn_standards_interval_count 0
_diffrn_standards_number         0
_exptl_absorpt_coefficient_mu    0.103
_exptl_absorpt_correction_T_max  0.93
_exptl_absorpt_correction_T_min  0.54
_exptl_absorpt_correction_type   numerical
_exptl_absorpt_process_details
;
Correction for absorption of the diamond-anvil cell and the sample
were made using program REDSHABS (Katrusiak, A. (2003) REDSHABS. Adam
Mickiewicz University Pozna\'n; Katrusiak, A. (2004) Z. Kristallogr.
219, 461-467).
;
_exptl_crystal_colour            colourless
_exptl_crystal_density_diffrn    1.312
_exptl_crystal_density_method    'not measured'
_exptl_crystal_description       cylinder
_exptl_crystal_F_000             200
_exptl_crystal_size_max          0.39
_exptl_crystal_size_mid          0.39
_exptl_crystal_size_min          0.25
_refine_diff_density_max         0.094
_refine_diff_density_min         -0.097
_refine_diff_density_rms         0.028
_refine_ls_abs_structure_details 'Flack H D (1983), Acta Cryst. A39, 876-881'
_refine_ls_abs_structure_Flack   3(4)
_refine_ls_extinction_method     none
_refine_ls_goodness_of_fit_ref   1.126
_refine_ls_hydrogen_treatment    constr
_refine_ls_matrix_type           full
_refine_ls_number_parameters     25
_refine_ls_number_reflns         284
_refine_ls_number_restraints     0
_refine_ls_restrained_S_all      1.126
_refine_ls_R_factor_all          0.0481
_refine_ls_R_factor_gt           0.0451
_refine_ls_shift/su_max          0.000
_refine_ls_shift/su_mean         0.000
_refine_ls_structure_factor_coef Fsqd
_refine_ls_weighting_details
'calc w=1/[\s^2^(Fo^2^)+(0.0437P)^2^+0.3168P] where P=(Fo^2^+2Fc^2^)/3'
_refine_ls_weighting_scheme      calc
_refine_ls_wR_factor_gt          0.1021
_refine_ls_wR_factor_ref         0.1045
_reflns_number_gt                268
_reflns_number_total             284
_reflns_threshold_expression     >2sigma(I)
_cod_data_source_file            c2ce25372k.txt
_cod_data_source_block           23butdiol_0.97GPa
_cod_database_code               7208661
loop_
_symmetry_equiv_pos_as_xyz
'x, y, z'
'-x+1/2, -y, z+1/2'
'-x, y+1/2, -z+1/2'
'x+1/2, -y+1/2, -z'
loop_
_atom_site_label
_atom_site_type_symbol
_atom_site_fract_x
_atom_site_fract_y
_atom_site_fract_z
_atom_site_U_iso_or_equiv
_atom_site_adp_type
_atom_site_occupancy
_atom_site_symmetry_multiplicity
_atom_site_calc_flag
_atom_site_refinement_flags
O1 O 0.3111(4) -0.0548(2) 0.1948(8) 0.0241(7) Uiso 1 1 d .
H1 H 0.1650 -0.0960 0.1923 0.036 Uiso 1 1 calc R
O2 O 0.1896(5) 0.3167(2) 0.2944(7) 0.0241(7) Uiso 1 1 d .
H2 H 0.3430 0.3497 0.2965 0.029 Uiso 1 1 calc R
C1 C 0.0641(8) 0.1241(4) 0.0631(13) 0.0327(11) Uiso 1 1 d .
H11 H 0.0951 0.0597 -0.0112 0.049 Uiso 1 1 calc R
H12 H 0.0826 0.2205 0.0318 0.049 Uiso 1 1 calc R
H13 H -0.1150 0.1099 0.0982 0.049 Uiso 1 1 calc R
C2 C 0.2701(6) 0.0956(3) 0.1751(11) 0.0213(8) Uiso 1 1 d .
H21 H 0.4427 0.1359 0.1450 0.026 Uiso 1 1 calc R
C3 C 0.2014(7) 0.1645(3) 0.3149(11) 0.0214(8) Uiso 1 1 d .
H31 H 0.3475 0.1431 0.3790 0.026 Uiso 1 1 calc R
C4 C -0.0650(7) 0.1188(4) 0.3774(12) 0.0306(10) Uiso 1 1 d .
H41 H -0.1110 0.1823 0.4503 0.046 Uiso 1 1 calc R
H42 H -0.0485 0.0234 0.4119 0.046 Uiso 1 1 calc R
H43 H -0.2042 0.1216 0.3094 0.046 Uiso 1 1 calc R
loop_
_atom_type_symbol
_atom_type_description
_atom_type_scat_dispersion_real
_atom_type_scat_dispersion_imag
_atom_type_scat_source
C C 0.0033 0.0016 'International Tables Vol C Tables 4.2.6.8 and 6.1.1.4'
H H 0.0000 0.0000 'International Tables Vol C Tables 4.2.6.8 and 6.1.1.4'
O O 0.0106 0.0060 'International Tables Vol C Tables 4.2.6.8 and 6.1.1.4'
loop_
_geom_angle_atom_site_label_1
_geom_angle_atom_site_label_2
_geom_angle_atom_site_label_3
_geom_angle
O1 C2 C1 111.3(5)
O1 C2 C3 108.7(7)
C1 C2 C3 114.8(4)
O2 C3 C4 107.5(3)
O2 C3 C2 107.3(7)
C4 C3 C2 115.4(5)
loop_
_geom_bond_atom_site_label_1
_geom_bond_atom_site_label_2
_geom_bond_distance
O1 C2 1.438(4)
O2 C3 1.442(4)
C1 C2 1.524(14)
C2 C3 1.556(13)
C3 C4 1.516(8)
loop_
_refln_index_h
_refln_index_k
_refln_index_l
_refln_F_squared_calc
_refln_F_squared_meas
_refln_F_squared_sigma
_refln_observed_status
2 0 0 1198.86 1148.73 14.99 o
4 0 0 31.00 39.27 0.69 o
1 1 0 1429.39 1337.57 5.80 o
2 1 0 244.64 246.61 4.26 o
3 1 0 134.27 134.52 0.90 o
4 1 0 169.88 181.11 1.27 o
5 1 0 2.86 2.88 0.36 o
6 1 0 25.96 25.86 1.28 o
0 2 0 5.71 6.64 0.13 o
1 2 0 1242.44 1158.79 11.15 o
2 2 0 0.23 0.11 0.03 o
3 2 0 6.20 6.11 0.19 o
4 2 0 1.21 0.52 0.17 o
5 2 0 5.78 3.79 0.40 o
6 2 0 1.19 1.09 0.50 o
1 3 0 206.17 180.46 1.14 o
2 3 0 0.43 0.28 0.06 o
3 3 0 4.11 7.31 0.26 o
4 3 0 4.11 4.08 0.28 o
5 3 0 15.11 14.65 0.56 o
6 3 0 0.51 1.06 0.60 o
0 4 0 2089.00 2176.63 36.73 o
1 4 0 133.72 144.44 1.54 o
2 4 0 0.03 0.35 0.08 o
3 4 0 122.97 128.30 1.14 o
4 4 0 9.75 10.09 0.44 o
5 4 0 15.20 11.66 0.84 o
6 4 0 19.70 24.00 1.53 o
1 5 0 366.55 367.66 5.21 o
2 5 0 8.68 6.22 0.16 o
3 5 0 59.43 67.12 0.75 o
4 5 0 0.50 0.72 0.34 o
5 5 0 1.04 1.11 0.44 o
0 6 0 14.56 16.15 0.54 o
1 6 0 73.25 74.90 1.05 o
2 6 0 8.34 8.63 0.28 o
3 6 0 28.26 28.25 0.52 o
4 6 0 3.00 3.91 0.56 o
5 6 0 13.91 15.19 0.98 o
1 7 0 21.61 16.52 0.61 o
2 7 0 189.36 186.96 3.20 o
3 7 0 5.55 8.65 0.60 o
4 7 0 145.68 155.91 3.00 o
0 8 0 45.32 54.18 1.01 o
1 8 0 1.10 1.23 0.28 o
2 8 0 238.35 240.91 2.50 o
3 8 0 34.76 39.00 1.73 o
1 0 1 537.63 561.71 7.71 o
2 0 1 67.17 56.65 0.59 o
3 0 1 1.01 0.57 0.13 o
4 0 1 291.59 271.37 1.54 o
5 0 1 0.05 0.82 0.35 o
6 0 1 2.33 1.12 0.41 o
-6 1 1 22.80 21.46 1.10 o
-5 1 1 10.23 6.15 0.63 o
-4 1 1 72.56 64.58 0.85 o
-3 1 1 150.35 150.35 1.73 o
-2 1 1 486.28 523.37 5.84 o
-1 1 1 1235.31 1265.42 10.49 o
1 1 1 1235.44 1188.11 16.41 o
2 1 1 486.50 521.65 8.05 o
3 1 1 150.44 143.23 3.30 o
4 1 1 72.51 64.89 0.70 o
5 1 1 10.26 7.44 0.83 o
6 1 1 22.77 20.49 1.08 o
-6 2 1 42.81 47.72 2.14 o
-5 2 1 138.07 153.45 1.53 o
-4 2 1 25.31 26.10 0.53 o
-3 2 1 465.48 460.99 4.34 o
-2 2 1 96.00 93.53 1.13 o
-1 2 1 315.34 317.79 3.83 o
0 2 1 405.93 394.03 5.07 o
1 2 1 314.92 325.02 6.71 o
2 2 1 96.01 93.11 1.29 o
3 2 1 466.13 464.24 3.91 o
4 2 1 25.32 25.88 0.54 o
5 2 1 137.74 151.19 1.95 o
6 2 1 42.83 41.72 2.83 o
-6 3 1 3.43 0.87 1.16 o
-5 3 1 16.06 11.68 0.66 o
-4 3 1 6.16 5.27 0.37 o
-3 3 1 7.34 8.18 0.30 o
-2 3 1 3.51 3.32 0.13 o
-1 3 1 201.58 182.14 2.65 o
0 3 1 9.93 12.32 0.28 o
1 3 1 201.68 190.79 3.57 o
2 3 1 3.53 3.24 0.15 o
3 3 1 7.41 7.67 0.31 o
4 3 1 6.20 5.08 0.39 o
5 3 1 16.12 12.17 0.65 o
6 3 1 3.45 3.97 1.98 o
-5 4 1 5.83 6.85 1.94 o
-4 4 1 58.14 57.96 1.10 o
-3 4 1 3.44 2.53 0.21 o
-2 4 1 54.28 62.75 1.33 o
-1 4 1 140.89 129.83 3.57 o
0 4 1 0.86 1.97 0.25 o
1 4 1 140.62 135.84 1.71 o
2 4 1 54.27 61.25 1.17 o
3 4 1 3.42 7.07 1.67 o
4 4 1 58.14 57.20 0.79 o
5 4 1 5.81 5.01 0.79 o
-5 5 1 10.02 7.35 0.83 o
-4 5 1 3.36 3.63 0.52 o
-3 5 1 57.54 47.58 0.85 o
-2 5 1 7.23 5.68 0.24 o
-1 5 1 660.23 715.64 6.50 o
0 5 1 1.24 2.62 0.19 o
1 5 1 660.46 705.90 8.66 o
2 5 1 7.17 5.48 0.23 o
3 5 1 57.58 46.98 0.82 o
4 5 1 3.36 2.94 0.45 o
5 5 1 10.02 8.58 0.93 o
-5 6 1 104.11 113.08 4.47 o
-4 6 1 3.10 1.84 0.39 o
-3 6 1 192.31 212.68 1.92 o
-2 6 1 74.19 77.63 1.01 o
-1 6 1 69.05 79.91 1.12 o
0 6 1 869.30 927.76 9.45 o
1 6 1 68.97 75.97 1.89 o
2 6 1 74.23 76.53 1.31 o
3 6 1 192.52 208.73 4.33 o
4 6 1 3.10 2.23 0.46 o
5 6 1 103.94 117.63 2.27 o
-5 7 1 2.46 1.84 1.36 o
-4 7 1 57.25 50.75 1.59 o
-3 7 1 2.25 1.09 0.29 o
-2 7 1 74.71 71.86 1.16 o
-1 7 1 15.46 11.03 0.45 o
0 7 1 114.84 120.42 5.02 o
1 7 1 15.44 11.17 0.61 o
2 7 1 74.65 71.87 1.25 o
3 7 1 2.26 0.83 0.38 o
4 7 1 57.20 52.16 1.52 o
5 7 1 2.47 0.89 1.18 o
-5 8 1 7.22 6.15 1.69 o
-4 8 1 4.25 2.06 0.96 o
-3 8 1 12.08 12.41 0.85 o
-2 8 1 60.93 64.54 0.93 o
-1 8 1 35.96 34.06 0.69 o
0 8 1 28.99 23.87 0.57 o
1 8 1 35.97 33.79 0.68 o
2 8 1 60.87 63.53 1.27 o
3 8 1 12.08 11.74 0.87 o
4 8 1 4.29 2.09 1.44 o
-4 9 1 7.90 5.85 1.96 o
-3 9 1 15.46 14.00 2.42 o
-2 9 1 5.60 5.66 0.68 o
-1 9 1 47.22 46.40 0.78 o
0 9 1 0.20 0.52 0.28 o
1 9 1 47.20 47.75 1.76 o
2 9 1 5.53 5.26 0.69 o
3 9 1 15.46 15.89 1.67 o
4 9 1 7.85 11.73 2.14 o
-3 10 1 17.06 12.92 1.52 o
-2 10 1 3.78 1.85 0.95 o
-1 10 1 10.70 9.18 0.89 o
0 10 1 29.50 37.30 1.04 o
1 10 1 10.74 8.72 0.97 o
2 10 1 3.82 1.34 1.30 o
3 0 2 90.80 85.52 1.86 o
4 0 2 29.41 32.96 0.72 o
-5 1 2 23.80 20.16 2.17 o
-4 1 2 167.41 165.47 1.88 o
-3 1 2 147.52 147.95 4.17 o
3 1 2 147.44 154.45 3.58 o
4 1 2 167.33 171.10 2.16 o
5 1 2 23.78 20.45 1.88 o
-5 2 2 3.11 3.70 1.52 o
-4 2 2 42.57 47.64 1.87 o
-3 2 2 60.20 56.98 1.29 o
-2 2 2 228.69 252.49 1.15 o
2 2 2 228.68 240.56 1.57 o
3 2 2 60.28 50.38 1.83 o
4 2 2 42.58 41.82 2.66 o
5 2 2 3.09 1.37 1.70 o
-5 3 2 4.59 5.40 2.14 o
-4 3 2 10.72 8.08 0.80 o
-3 3 2 33.63 36.60 0.78 o
-2 3 2 13.19 15.48 1.02 o
-1 3 2 232.63 248.57 8.07 o
1 3 2 232.89 249.43 3.92 o
2 3 2 13.15 16.83 1.11 o
3 3 2 33.50 37.19 1.08 o
4 3 2 10.71 8.02 0.84 o
5 3 2 4.58 4.92 1.12 o
-5 4 2 60.83 70.01 2.38 o
-4 4 2 7.92 9.06 1.26 o
-3 4 2 143.70 132.80 1.71 o
-2 4 2 97.96 87.79 1.77 o
-1 4 2 72.62 76.55 0.94 o
0 4 2 22.85 18.00 0.64 o
1 4 2 72.82 74.84 1.16 o
2 4 2 97.89 89.59 1.06 o
3 4 2 143.30 133.91 1.82 o
4 4 2 7.91 8.96 1.07 o
5 4 2 61.18 68.40 2.38 o
-5 5 2 30.70 22.75 1.72 o
-4 5 2 16.33 21.91 1.57 o
-3 5 2 125.33 131.25 1.16 o
-2 5 2 29.36 34.34 1.32 o
-1 5 2 178.43 189.57 3.41 o
0 5 2 19.29 14.65 0.40 o
1 5 2 178.46 191.86 4.27 o
2 5 2 29.44 34.13 0.63 o
3 5 2 125.20 127.05 1.19 o
4 5 2 16.37 19.85 1.32 o
5 5 2 30.67 23.05 2.11 o
-5 6 2 2.26 3.38 1.33 o
-4 6 2 114.91 130.02 4.19 o
-3 6 2 50.52 52.63 1.27 o
-2 6 2 5.09 3.93 0.35 o
-1 6 2 362.57 339.59 5.74 o
0 6 2 28.54 35.63 0.65 o
1 6 2 362.58 344.40 4.59 o
2 6 2 5.13 3.95 0.40 o
3 6 2 50.58 51.55 0.87 o
4 6 2 114.87 121.21 2.89 o
5 6 2 2.27 2.70 0.80 o
-5 7 2 2.14 1.93 1.49 o
-4 7 2 63.20 66.56 3.01 o
-3 7 2 3.01 1.50 0.43 o
-2 7 2 183.98 186.89 1.82 o
-1 7 2 15.55 17.51 0.55 o
0 7 2 121.81 134.02 1.60 o
1 7 2 15.56 18.44 0.56 o
2 7 2 184.06 189.06 2.22 o
3 7 2 3.00 2.76 0.45 o
4 7 2 63.27 57.66 8.43 o
5 7 2 2.15 1.45 1.36 o
-4 8 2 2.65 2.90 0.73 o
-3 8 2 30.41 33.33 1.06 o
-2 8 2 34.04 41.82 0.82 o
-1 8 2 21.04 21.98 0.75 o
0 8 2 233.65 244.70 3.39 o
1 8 2 21.04 22.96 0.97 o
2 8 2 33.99 41.12 1.26 o
3 8 2 30.42 33.85 1.09 o
4 8 2 2.64 2.94 0.85 o
-4 9 2 4.07 2.34 1.40 o
-3 9 2 7.20 4.62 0.59 o
-2 9 2 10.80 8.80 0.82 o
-1 9 2 12.26 11.90 0.57 o
0 9 2 1.84 0.98 0.38 o
1 9 2 12.25 12.59 0.62 o
2 9 2 10.89 8.37 0.76 o
3 9 2 7.22 7.36 0.85 o
4 9 2 4.11 4.43 1.60 o
-3 10 2 2.18 1.94 0.77 o
-2 10 2 7.31 5.26 0.66 o
-1 10 2 4.89 4.63 0.51 o
0 10 2 1.34 1.59 0.41 o
1 10 2 4.93 4.39 0.39 o
2 10 2 7.34 5.99 0.76 o
3 10 2 2.16 1.45 0.62 o
-2 11 2 12.35 15.75 1.36 o
-1 11 2 5.40 5.19 0.70 o
0 11 2 2.28 1.94 0.73 o
1 11 2 5.36 4.23 0.55 o
2 11 2 12.36 15.88 2.62 o
-1 12 2 16.06 15.00 2.39 o
-3 6 3 36.58 27.78 2.15 o
-2 6 3 136.52 131.66 3.00 o
2 6 3 136.53 120.10 7.09 o
3 6 3 36.59 34.97 2.13 o
-3 7 3 5.24 4.97 2.66 o
-2 7 3 279.16 275.55 15.34 o
-1 7 3 16.60 14.15 1.06 o
0 7 3 261.81 264.91 5.52 o
1 7 3 16.56 15.58 0.79 o
2 7 3 279.08 269.63 6.87 o
3 7 3 5.24 5.54 2.50 o
-2 8 3 70.57 67.45 3.87 o
-1 8 3 141.92 130.74 3.61 o
0 8 3 0.55 0.64 0.53 o
1 8 3 141.89 126.19 3.20 o
2 8 3 70.55 66.52 3.37 o
-2 9 3 4.82 3.56 0.93 o
-1 9 3 14.83 13.76 2.49 o
0 9 3 6.53 7.36 1.37 o
1 9 3 14.87 10.57 1.17 o
2 9 3 4.78 2.70 0.72 o
-1 10 3 0.20 0.99 0.72 o
1 10 3 0.21 0.77 0.68 o
